
#(C) 2019 by FIZ Karlsruhe - Leibniz Institute for Information Infrastructure.  All rights reserved.
data_151015-ICSD
_database_code_ICSD 151015
_audit_creation_date 2006-04-01
_audit_update_record 2008-08-01
_chemical_name_systematic 'Bis(trimethanolosodium) ditelluride'
_chemical_formula_structural '(Na (C H3 O H)3)2 Te2'
_chemical_formula_sum 'C6 H24 Na2 O6 Te2'
_exptl_crystal_density_diffrn 1.95
_cell_measurement_temperature 213.
_publ_section_title

;
Darstellung und Reaktionen von Natriumtellurid, Na2 Te - Kristallstruktur von
(Na (C H3 O H)3)2 Te2
;
loop_
_citation_id
_citation_journal_full
_citation_year
_citation_journal_volume
_citation_page_first
_citation_page_last
_citation_journal_id_ASTM
primary 'Zeitschrift fuer Anorganische und Allgemeine Chemie (1950) (DE)' 1996
622 231 234 ZAACAB
loop_
_publ_author_name
'Thiele, K.H.'
'Steinicke, A.'
'Duemichen, U.'
'Neumueller, B.'
_cell_length_a 8.506(1)
_cell_length_b 8.506(1)
_cell_length_c 13.388(1)
_cell_angle_alpha 90.
_cell_angle_beta 90.
_cell_angle_gamma 120.
_cell_volume 838.87
_cell_formula_units_Z 2
_symmetry_space_group_name_H-M 'P -3 1 c'
_symmetry_Int_Tables_number 163
_refine_ls_R_factor_all 0.0192
loop_
_symmetry_equiv_pos_site_id
_symmetry_equiv_pos_as_xyz
1 '-x+y, y, -z+1/2'
2 'x, x-y, -z+1/2'
3 '-y, -x, -z+1/2'
4 'x-y, x, -z'
5 'y, -x+y, -z'
6 '-x, -y, -z'
7 'x-y, -y, z+1/2'
8 '-x, -x+y, z+1/2'
9 'y, x, z+1/2'
10 '-x+y, -x, z'
11 '-y, x-y, z'
12 'x, y, z'
loop_
_atom_type_symbol
_atom_type_oxidation_number
Te1- -1
Na1+ 1
O2- -2
C4+ 4
H1+ 1
H1- -1
loop_
_atom_site_label
_atom_site_type_symbol
_atom_site_symmetry_multiplicity
_atom_site_Wyckoff_symbol
_atom_site_fract_x
_atom_site_fract_y
_atom_site_fract_z
_atom_site_B_iso_or_equiv
_atom_site_occupancy
_atom_site_attached_hydrogens
Te1 Te1- 4 f 0.6667 0.3333 0.14751(2) 0.0184(1) 1. 0
Na1 Na1+ 2 b 0 0 0 0.0160(5) 1. 0
Na2 Na1+ 2 a 0 0 0.25 0.0149(5) 1. 0
O1 O2- 12 i -0.0030(3) 0.2069(6) 0.1256(2) 0.0260(6) 1. 0
C1 C4+ 12 i 0.1571(5) 0.382(1) 0.1165(3) 0.036(1) 1. 0
H1 H1+ 12 i -0.079(6) 0.23(1) 0.135(3) 0.04(1) 1. 0
H2 H1- 12 i 0.1388(5) 0.451(1) 0.0647(3) 0.09(1) 1. 0
H3 H1- 12 i 0.2596(5) 0.367(1) 0.0990(3) 0.09(1) 1. 0
H4 H1- 12 i 0.1810(5) 0.446(1) 0.1795(3) 0.09(1) 1. 0
loop_
_atom_site_aniso_label
_atom_site_aniso_type_symbol
_atom_site_aniso_U_11
_atom_site_aniso_U_22
_atom_site_aniso_U_33
_atom_site_aniso_U_12
_atom_site_aniso_U_13
_atom_site_aniso_U_23
Te1 Te1- 0.0179(2) 0.0238(2) 0.0236(2) 0.0179(1) 0. 0.
Na1 Na1+ 0.0164(8) 0.0218(8) 0.019(1) 0.0164(4) 0. 0.
Na2 Na1+ 0.0150(8) 0.0200(8) 0.018(1) 0.0150(4) 0. 0.
O1 O2- 0.025(1) 0.019(1) 0.036(1) 0.013(1) 0.003(1) 0.002(1)
C1 C4+ 0.037(2) 0.020(2) 0.043(2) 0.009(2) 0.005(2) 0.003(1)
#End of TTdata_151015-ICSD