
#(C) 2019 by FIZ Karlsruhe - Leibniz Institute for Information Infrastructure.  All rights reserved.
data_151273-ICSD
_database_code_ICSD 151273
_audit_creation_date 2006-10-01
_audit_update_record 2008-08-01
_chemical_name_systematic 'Trisodium hexaformatomolybdate(III)'
_chemical_formula_structural 'Na3 (Mo (H C O O)6)'
_chemical_formula_sum 'C6 H6 Mo1 Na3 O12'
_exptl_crystal_density_diffrn 2.23
_publ_section_title

;
Structures of trisodium hexakis(formato)chromate(III) tetrahydrate and
trisodium hexakis(formato)molybdate(III)
;
loop_
_citation_id
_citation_journal_full
_citation_year
_citation_journal_volume
_citation_page_first
_citation_page_last
_citation_journal_id_ASTM
primary 'Acta Crystallographica, Section C: Crystal Structure Communications'
1988 44 1362 1365 ACSCEE
loop_
_publ_author_name
'Hazell, A.'
_cell_length_a 14.630(6)
_cell_length_b 6.383(2)
_cell_length_c 13.888(5)
_cell_angle_alpha 90.
_cell_angle_beta 90.
_cell_angle_gamma 90.
_cell_volume 1296.91
_cell_formula_units_Z 4
_symmetry_space_group_name_H-M 'P c c n'
_symmetry_Int_Tables_number 56
_refine_ls_R_factor_all 0.026
loop_
_symmetry_equiv_pos_site_id
_symmetry_equiv_pos_as_xyz
1 'x, -y+1/2, z+1/2'
2 '-x+1/2, y, z+1/2'
3 'x+1/2, y+1/2, -z'
4 '-x, -y, -z'
5 '-x, y+1/2, -z+1/2'
6 'x+1/2, -y, -z+1/2'
7 '-x+1/2, -y+1/2, z'
8 'x, y, z'
loop_
_atom_type_symbol
_atom_type_oxidation_number
Mo3+ 3
Na1+ 1
O2- -2
C4+ 4
H1- -1
loop_
_atom_site_label
_atom_site_type_symbol
_atom_site_symmetry_multiplicity
_atom_site_Wyckoff_symbol
_atom_site_fract_x
_atom_site_fract_y
_atom_site_fract_z
_atom_site_B_iso_or_equiv
_atom_site_occupancy
_atom_site_attached_hydrogens
Mo1 Mo3+ 4 c 0.25 0.25 0.06318(2) 0.0138(2) 1. 0
Na1 Na1+ 4 d 0.25 0.75 0.4247(1) 0.021(1) 1. 0
Na2 Na1+ 8 e 0.0027(1) 0.2758(1) 0.2193(1) 0.026(1) 1. 0
O1 O2- 8 e 0.1669(1) 0.3885(2) 0.1704(1) 0.022(1) 1. 0
O2 O2- 8 e 0.1520(1) 0.6039(3) 0.2960(1) 0.030(1) 1. 0
O3 O2- 8 e 0.1790(1) -0.0369(2) 0.0497(1) 0.022(1) 1. 0
O4 O2- 8 e 0.0547(1) -0.0162(3) 0.1422(1) 0.038(1) 1. 0
O5 O2- 8 e 0.1734(1) 0.4084(3) -0.0430(1) 0.026(1) 1. 0
O6 O2- 8 e 0.0575(1) 0.4375(3) -0.1444(1) 0.037(1) 1. 0
C1 C4+ 8 e 0.1984(1) 0.5005(3) 0.2391(2) 0.023(1) 1. 0
C2 C4+ 8 e 0.1062(1) -0.1096(4) 0.0878(2) 0.024(1) 1. 0
C3 C4+ 8 e 0.1023(2) 0.3417(4) -0.0842(2) 0.030(1) 1. 0
H1 H1- 8 e 0.268(2) 0.496(6) 0.243(3) 0.055(11) 1. 0
H2 H1- 8 e 0.092(3) -0.260(4) 0.073(2) 0.029(10) 1. 0
H3 H1- 8 e 0.090(2) 0.187(6) -0.076(2) 0.037(9) 1. 0
#End of TTdata_151273-ICSD