
#(C) 2019 by FIZ Karlsruhe - Leibniz Institute for Information Infrastructure.  All rights reserved.
data_151256-ICSD
_database_code_ICSD 151256
_audit_creation_date 2006-10-01
_audit_update_record 2008-08-01
_chemical_name_systematic 'Sodium formate'
_chemical_formula_structural 'Na (H C O O)'
_chemical_formula_sum 'C1 H1 Na1 O2'
_chemical_name_structure_type NaHCOO
_exptl_crystal_density_diffrn 1.97
_cell_measurement_temperature 120.
_publ_section_title

;
Comparison of observed and calculated densities. XII. Deformation density in
complex anions. II. Experimental and theoretical densities in sodium formate
;
loop_
_citation_id
_citation_journal_full
_citation_year
_citation_journal_volume
_citation_page_first
_citation_page_last
_citation_journal_id_ASTM
primary

;
Acta Crystallographica, Section B: Structural Crystallography and Crystal
Chemistry
; 1982 38 736 743 ACBCAR
loop_
_publ_author_name
'Fuess, H.'
'Bats, J.W.'
'Dannoehl, H.'
'Meyer, H.'
'Schweig, A.'
_cell_length_a 6.239(2)
_cell_length_b 6.749(2)
_cell_length_c 6.097(2)
_cell_angle_alpha 90.
_cell_angle_beta 116.61(2)
_cell_angle_gamma 90.
_cell_volume 229.53
_cell_formula_units_Z 4
_symmetry_space_group_name_H-M 'C 1 2/c 1'
_symmetry_Int_Tables_number 15
_refine_ls_R_factor_all 0.027
loop_
_symmetry_equiv_pos_site_id
_symmetry_equiv_pos_as_xyz
1 'x, -y, z+1/2'
2 '-x, -y, -z'
3 '-x, y, -z+1/2'
4 'x, y, z'
5 'x+1/2, -y+1/2, z+1/2'
6 '-x+1/2, -y+1/2, -z'
7 '-x+1/2, y+1/2, -z+1/2'
8 'x+1/2, y+1/2, z'
loop_
_atom_type_symbol
_atom_type_oxidation_number
Na1+ 1
O2- -2
C4+ 4
H1- -1
loop_
_atom_site_label
_atom_site_type_symbol
_atom_site_symmetry_multiplicity
_atom_site_Wyckoff_symbol
_atom_site_fract_x
_atom_site_fract_y
_atom_site_fract_z
_atom_site_B_iso_or_equiv
_atom_site_occupancy
_atom_site_attached_hydrogens
Na1 Na1+ 4 e 0 -0.13697(6) 0.25 0.0087(1) 1. 0
O1 O2- 8 f 0.14096(3) 0.19311(3) 0.18456(3) 0.0099(1) 1. 0
C1 C4+ 4 e 0 0.27832(3) 0.25 0.0091(1) 1. 0
H1 H1- 4 e 0 0.44137(10) 0.25 0.0390(5) 1. 0
#End of TTdata_151256-ICSD