
#(C) 2018 by FIZ Karlsruhe - Leibniz Institute for Information Infrastructure.  All rights reserved.
data_151274-ICSD
_database_code_ICSD 151274
_audit_creation_date 2006-10-01
_audit_update_record 2008-08-01
_chemical_name_systematic 'Lithium formate'
_chemical_formula_structural 'Li (H C O O)'
_chemical_formula_sum 'C1 H1 Li1 O2'
_exptl_crystal_density_diffrn 1.43
_cell_measurement_temperature 295.
_publ_section_title 'The structure of lithium formate'
loop_
_citation_id
_citation_journal_full
_citation_year
_citation_journal_volume
_citation_page_first
_citation_page_last
_citation_journal_id_ASTM
primary 'Acta Crystallographica, Section C: Crystal Structure Communications'
1989 45 187 191 ACSCEE
loop_
_publ_author_name
'Kansikas, J.'
'Hermansson, K.'
_cell_length_a 12.054(5)
_cell_length_b 12.063(4)
_cell_length_c 13.518(5)
_cell_angle_alpha 90.
_cell_angle_beta 100.96(1)
_cell_angle_gamma 90.
_cell_volume 1929.76
_cell_formula_units_Z 32
_symmetry_space_group_name_H-M 'C 1 2/c 1'
_symmetry_Int_Tables_number 15
_refine_ls_R_factor_all 0.047
loop_
_symmetry_equiv_pos_site_id
_symmetry_equiv_pos_as_xyz
1 'x, -y, z+1/2'
2 '-x, -y, -z'
3 '-x, y, -z+1/2'
4 'x, y, z'
5 'x+1/2, -y+1/2, z+1/2'
6 '-x+1/2, -y+1/2, -z'
7 '-x+1/2, y+1/2, -z+1/2'
8 'x+1/2, y+1/2, z'
loop_
_atom_type_symbol
_atom_type_oxidation_number
O2- -2
C4+ 4
Li1+ 1
H1- -1
loop_
_atom_site_label
_atom_site_type_symbol
_atom_site_symmetry_multiplicity
_atom_site_Wyckoff_symbol
_atom_site_fract_x
_atom_site_fract_y
_atom_site_fract_z
_atom_site_B_iso_or_equiv
_atom_site_occupancy
_atom_site_attached_hydrogens
O1 O2- 8 f 0.56023(8) 0.40047(8) 0.38576(7) 0.0362 1. 0
O2 O2- 8 f 0.67930(8) 0.44638(9) 0.28656(7) 0.0369 1. 0
O3 O2- 8 f 0.35107(8) 0.39821(9) 0.43992(7) 0.0393 1. 0
O4 O2- 8 f 0.16672(8) 0.42167(9) 0.38948(7) 0.0372 1. 0
O5 O2- 8 f 0.42798(8) 0.03445(8) 0.35046(7) 0.0375 1. 0
O6 O2- 8 f 0.48159(9) 0.16972(8) 0.45954(7) 0.0373 1. 0
O7 O2- 8 f 0.59425(8) 0.19043(8) 0.67853(7) 0.0384 1. 0
O8 O2- 8 f 0.56706(9) 0.36503(8) 0.63026(7) 0.0399 1. 0
C1 C4+ 8 f 0.65503(12) 0.40587(12) 0.36446(10) 0.0418 1. 0
C2 C4+ 8 f 0.25214(11) 0.39573(13) 0.45218(10) 0.0417 1. 0
C3 C4+ 8 f 0.44423(12) 0.13305(12) 0.37408(10) 0.0403 1. 0
C4 C4+ 8 f 0.60861(12) 0.29147(12) 0.69023(11) 0.0424 1. 0
Li1 Li1+ 8 f 0.49659(19) 0.32850(19) 0.49178(16) 0.0399 1. 0
Li2 Li1+ 8 f 0.41925(19) 0.47767(19) 0.34017(16) 0.0348 1. 0
Li3 Li1+ 8 f 0.66981(19) 0.06151(19) 0.74564(16) 0.0341 1. 0
Li4 Li1+ 8 f 0.48832(18) 0.09612(19) 0.58820(16) 0.0347 1. 0
H1 H1- 8 f 0.720(2) 0.370(1) 0.414(1) 0.071 1. 0
H2 H1- 8 f 0.242(1) 0.367(1) 0.520(1) 0.067 1. 0
H3 H1- 8 f 0.425(1) 0.189(1) 0.320(1) 0.067 1. 0
H4 H1- 8 f 0.654(2) 0.318(2) 0.755(1) 0.072 1. 0
#End of TTdata_151274-ICSD