
#(C) 2019 by FIZ Karlsruhe - Leibniz Institute for Information Infrastructure.  All rights reserved.
data_151429-ICSD
_database_code_ICSD 151429
_audit_creation_date 2006-10-01
_audit_update_record 2015-08-01
_chemical_name_systematic 'Trisodium yttrium tricarbonate hexahydrate'
_chemical_formula_structural 'Na3 Y (C O3)3 (H2 O)6'
_chemical_formula_sum 'C3 H12 Na3 O15 Y1'
_chemical_name_structure_type Na3Y(CO3)3(H2O)6
_chemical_name_mineral Lecoqite-(Y)
_exptl_crystal_density_diffrn 2.24
_cell_measurement_temperature 298.
_publ_section_title

;
Hydrothermal synthesis, crystal structure, thermal behaviour, IR and Raman
spectroscopy of Na3 Y (C O3)3 * 6(H2 O)
;
loop_
_citation_id
_citation_journal_full
_citation_year
_citation_journal_volume
_citation_page_first
_citation_page_last
_citation_journal_id_ASTM
primary 'Comptes Rendus Chimie' 2004 7 661 668 CRCOCR
loop_
_publ_author_name
'Ben Ali, A.'
'Awaleh, M.O.'
'Leblanc, M.'
'Smiri, L.S.'
'Maisonneuve, V.'
'Houlbert, S.'
_cell_length_a 11.347(5)
_cell_length_b 11.347(5)
_cell_length_c 5.935(5)
_cell_angle_alpha 90.
_cell_angle_beta 90.
_cell_angle_gamma 120.
_cell_volume 661.78
_cell_formula_units_Z 2
_symmetry_space_group_name_H-M 'P 63'
_symmetry_Int_Tables_number 173
_refine_ls_R_factor_all 0.058
loop_
_symmetry_equiv_pos_site_id
_symmetry_equiv_pos_as_xyz
1 'x-y, x, z+1/2'
2 'y, -x+y, z+1/2'
3 '-x, -y, z+1/2'
4 '-x+y, -x, z'
5 '-y, x-y, z'
6 'x, y, z'
loop_
_atom_type_symbol
_atom_type_oxidation_number
Y3+ 3
Na1+ 1
C4+ 4
O2- -2
H1+ 1
loop_
_atom_site_label
_atom_site_type_symbol
_atom_site_symmetry_multiplicity
_atom_site_Wyckoff_symbol
_atom_site_fract_x
_atom_site_fract_y
_atom_site_fract_z
_atom_site_B_iso_or_equiv
_atom_site_occupancy
_atom_site_attached_hydrogens
Y1 Y3+ 2 b 0.3333 0.6667 0.9023(4) 1.31(4) 1. 0
Na1 Na1+ 6 c 0.3749(5) 0.3634(5) 0.6788(8) 2.12(8) 1. 0
C1 C4+ 6 c 0.120(1) 0.436(1) 0.676(2) 1.6(2) 1. 0
O1 O2- 6 c 0.0313(9) 0.3382(7) 0.563(1) 1.8(1) 1. 0
O2 O2- 6 c 0.2505(9) 0.4869(9) 0.634(2) 1.8(2) 1. 0
O3 O2- 6 c 0.0914(8) 0.4929(8) 0.841(1) 1.8(1) 1. 0
O4 O2- 6 c 0.158(1) 0.179(1) 0.555(3) 6.6(4) 1. 0
O5 O2- 6 c 0.493(1) 0.216(1) 0.674(2) 2.3(2) 1. 0
H1 H1+ 6 c 0.08(1) 0.10(1) 0.47(2) 4. 1. 0
H2 H1+ 6 c 0.12(2) 0.25(2) 0.52(2) 4. 1. 0
H3 H1+ 6 c 0.47(1) 0.20(1) 0.85(3) 4. 1. 0
H4 H1+ 6 c 0.54(2) 0.17(2) 0.68(3) 4. 1. 0
loop_
_atom_site_aniso_label
_atom_site_aniso_type_symbol
_atom_site_aniso_U_11
_atom_site_aniso_U_22
_atom_site_aniso_U_33
_atom_site_aniso_U_12
_atom_site_aniso_U_13
_atom_site_aniso_U_23
Y1 Y3+ 0.0157(5) 0.0157(5) 0.0184(7) 0.0078(3) 0. 0.
Na1 Na1+ 0.028(3) 0.030(3) 0.025(2) 0.016(2) 0.006(2) 0.006(2)
O1 O2- 0.023(4) 0.014(4) 0.028(4) 0.007(3) -0.003(4) -0.014(3)
O2 O2- 0.020(4) 0.021(4) 0.030(5) 0.010(4) -0.006(4) -0.006(4)
O3 O2- 0.025(4) 0.025(4) 0.021(4) 0.013(3) -0.003(3) -0.005(3)
O4 O2- 0.046(7) 0.044(7) 0.16(1) 0.025(6) -0.023(8) -0.018(8)
O5 O2- 0.030(5) 0.033(5) 0.025(4) 0.017(4) 0.002(4) -0.006(4)
#End of TTdata_151429-ICSD