
#(C) 2019 by FIZ Karlsruhe - Leibniz Institute for Information Infrastructure.  All rights reserved.
data_15874-ICSD
_database_code_ICSD 15874
_audit_creation_date 1980-01-01
_chemical_name_systematic 'Sodium tetrazolate hydrate'
_chemical_formula_structural 'Na H C N4 H2 O'
_chemical_formula_sum 'C1 H3 N4 Na1 O1'
_exptl_crystal_density_diffrn 1.72
_publ_section_title
'The crystal and molecular structure of sodium tetrazolate monohydrate'
loop_
_citation_id
_citation_journal_full
_citation_year
_citation_journal_volume
_citation_page_first
_citation_page_last
_citation_journal_id_ASTM
primary 'Acta Crystallographica' 1963 16 596 600 ACCRA9
loop_
_publ_author_name
'Palenik, G.J.'
_cell_length_a 5.868(6)
_cell_length_b 5.624(5)
_cell_length_c 6.450(7)
_cell_angle_alpha 90.
_cell_angle_beta 90.
_cell_angle_gamma 90.
_cell_volume 212.86
_cell_formula_units_Z 2
_symmetry_space_group_name_H-M 'P m c m'
_symmetry_Int_Tables_number 51
_refine_ls_R_factor_all 0.05
loop_
_symmetry_equiv_pos_site_id
_symmetry_equiv_pos_as_xyz
1 '-x, y, -z+1/2'
2 '-x, -y, z+1/2'
3 '-x, y, z'
4 '-x, -y, -z'
5 'x, -y, z+1/2'
6 'x, y, -z+1/2'
7 'x, -y, -z'
8 'x, y, z'
loop_
_atom_type_symbol
_atom_type_oxidation_number
Na1+ 1
O2- -2
C2+ 2
N2- -2
N0+ 0
H1+ 1
loop_
_atom_site_label
_atom_site_type_symbol
_atom_site_symmetry_multiplicity
_atom_site_Wyckoff_symbol
_atom_site_fract_x
_atom_site_fract_y
_atom_site_fract_z
_atom_site_B_iso_or_equiv
_atom_site_occupancy
_atom_site_attached_hydrogens
Na1 Na1+ 2 a 0 0 0 . 1. 0
O1 O2- 2 e 0 0.6820(3) 0.25 . 1. 0
C1 C2+ 2 f 0.5 0.0069(4) 0.25 . 1. 0
N1 N2- 4 k 0.3118(2) 0.1383(2) 0.25 . 1. 0
N2 N0+ 4 k 0.3884(2) 0.3643(2) 0.25 . 1. 0
H1 H1+ 2 f 0.5 -.155(7) 0.25 1.15 1. 0
H2 H1+ 4 k 0.109(6) 0.604(6) 0.25 2.19 1. 0
loop_
_atom_site_aniso_label
_atom_site_aniso_type_symbol
_atom_site_aniso_beta_11
_atom_site_aniso_beta_22
_atom_site_aniso_beta_33
_atom_site_aniso_beta_12
_atom_site_aniso_beta_13
_atom_site_aniso_beta_23
Na1 Na1+ 0.0109(2) 0.0180(2) 0.0109(2) 0 0 0
O1 O2- 0.0130(3) 0.0110(3) 0.0226(5) 0 0 0
C1 C2+ 0.0110(3) 0.0120(4) 0.0167(4) 0 0 0
N1 N2- 0.0085(2) 0.0153(3) 0.0160(3) -.00085(15) 0 0
N2 N0+ 0.0110(2) 0.0131(3) 0.0197(3) 0.0016(2) 0 0
#End of TTdata_15874-ICSD