
#(C) 2019 by FIZ Karlsruhe - Leibniz Institute for Information Infrastructure.  All rights reserved.
data_170800-ICSD
_database_code_ICSD 170800
_audit_creation_date 2006-04-01
_chemical_name_systematic Poly(sodium-mue6-methylenediphosphonato)
_chemical_formula_structural 'Na (C H5 O6 P2)'
_chemical_formula_sum 'C1 H5 Na1 O6 P2'
_exptl_crystal_density_diffrn 2.08
_publ_section_title 'Sodium methylenediphosphonate, Na (H O3 P C H2 P O3 H2)'
loop_
_citation_id
_citation_journal_full
_citation_year
_citation_journal_volume
_citation_page_first
_citation_page_last
_citation_journal_id_ASTM
primary 'Acta Crystallographica, Section E: Structure Reports Online' 2005 61
m1794 m1796 ACSEBH
loop_
_publ_author_name
'Rao, K.P.'
'Vidyasagar, K.'
_cell_length_a 8.1041(14)
_cell_length_b 8.139(3)
_cell_length_c 9.7289(8)
_cell_angle_alpha 90.
_cell_angle_beta 99.860(10)
_cell_angle_gamma 90.
_cell_volume 632.23
_cell_formula_units_Z 4
_symmetry_space_group_name_H-M 'P 1 21/n 1'
_symmetry_Int_Tables_number 14
_refine_ls_R_factor_all 0.0282
loop_
_symmetry_equiv_pos_site_id
_symmetry_equiv_pos_as_xyz
1 '-x+1/2, y+1/2, -z+1/2'
2 '-x, -y, -z'
3 'x+1/2, -y+1/2, z+1/2'
4 'x, y, z'
loop_
_atom_type_symbol
_atom_type_oxidation_number
C2- -2
Na1+ 1
O2- -2
H1+ 1
O2- -2
H1+ 1
O2- -2
H1+ 1
P4+ 4
H1+ 1
loop_
_atom_site_label
_atom_site_type_symbol
_atom_site_symmetry_multiplicity
_atom_site_Wyckoff_symbol
_atom_site_fract_x
_atom_site_fract_y
_atom_site_fract_z
_atom_site_B_iso_or_equiv
_atom_site_occupancy
_atom_site_attached_hydrogens
C1 C2- 4 e -0.0117(3) 0.0787(3) 0.1929(2) 0.0169(5) 1 0
Na1 Na1+ 2 c 0.5 0. 0.5 0.0335(4) 1 0
Na2 Na1+ 2 d 0.5 0. 0. 0.0210(3) 1 0
O1 O2- 4 e 0.2927(2) 0.1915(2) 0.31855(16) 0.0216(4) 1 0
H1 H1+ 4 e 0.2666 0.2864 0.3334 0.067(13) 1 0
O2 O2- 4 e 0.1876(2) 0.2775(2) 0.06817(17) 0.0215(4) 1 0
H2 H1+ 4 e 0.2503 0.2589 0.0123 0.032 1 0
O3 O2- 4 e 0.28241(19) -0.01406(19) 0.12652(16) 0.0187(4) 1 0
O4 O2- 4 e -0.1471(2) 0.38419(19) 0.16228(17) 0.0205(4) 1 0
O5 O2- 4 e -0.1138(2) 0.2529(2) 0.40122(17) 0.0208(4) 1 0
O6 O2- 4 e -0.33157(19) 0.1475(2) 0.20446(17) 0.0204(4) 1 0
H3 H1+ 4 e -0.3362 0.0652 0.2522 0.070(14) 1 0
P1 P4+ 4 e 0.19787(7) 0.13547(7) 0.17328(6) 0.0136(2) 1 0
P2 P4+ 4 e -0.15439(6) 0.22778(7) 0.24346(5) 0.0137(2) 1 0
H4 H1+ 4 e 0.001(4) 0.002(4) 0.257(3) 0.035(9) 1 0
H5 H1+ 4 e -0.064(3) 0.029(3) 0.108(3) 0.017(6) 1 0
loop_
_atom_site_aniso_label
_atom_site_aniso_type_symbol
_atom_site_aniso_U_11
_atom_site_aniso_U_22
_atom_site_aniso_U_33
_atom_site_aniso_U_12
_atom_site_aniso_U_13
_atom_site_aniso_U_23
C1 C2- 0.0173(11) 0.0140(11) 0.0215(12) -0.0001(9) 0.0091(9) -0.0029(10)
Na1 Na1+ 0.0374(8) 0.0290(8) 0.0406(9) -0.0147(6) 0.0253(7) -0.0189(6)
Na2 Na1+ 0.0184(6) 0.0234(7) 0.0231(7) 0.0065(5) 0.0089(5) 0.0052(5)
O1 O2- 0.0243(9) 0.0180(9) 0.0219(9) 0.0005(7) 0.0022(7) -0.0025(6)
O2 O2- 0.0257(9) 0.0194(9) 0.0237(9) 0.0079(7) 0.0161(7) 0.0071(7)
O3 O2- 0.0224(8) 0.0135(8) 0.0230(8) 0.0037(6) 0.0118(7) 0.0011(6)
O4 O2- 0.0256(9) 0.0148(8) 0.0236(8) 0.0006(6) 0.0117(7) 0.0024(6)
O5 O2- 0.0230(9) 0.0239(9) 0.0174(8) -0.0068(7) 0.0091(7) -0.0050(6)
O6 O2- 0.0163(8) 0.0203(9) 0.0251(9) -0.0034(6) 0.0051(7) 0.0000(7)
P1 P4+ 0.0156(3) 0.0115(3) 0.0152(3) 0.0020(2) 0.0069(2) 0.00050(19)
P2 P4+ 0.0143(3) 0.0127(3) 0.0156(4) -0.0011(2) 0.0070(2) -0.0016(2)
#End of TTdata_170800-ICSD