
#(C) 2019 by FIZ Karlsruhe - Leibniz Institute for Information Infrastructure.  All rights reserved.
data_1852-ICSD
_database_code_ICSD 1852
_audit_creation_date 1980-01-01
_audit_update_record 2011-02-01
_chemical_name_systematic 'Sodium carbonate hydrate'
_chemical_formula_structural 'Na2 (C O3) (H2 O)'
_chemical_formula_sum 'C1 H2 Na2 O4'
_chemical_name_structure_type Na2CO3H2O
_chemical_name_mineral Thermonatrite
_exptl_crystal_density_diffrn 2.26
_publ_section_title 'A neutron diffraction study of Na2 C O3 (H2 O)'
loop_
_citation_id
_citation_journal_full
_citation_year
_citation_journal_volume
_citation_page_first
_citation_page_last
_citation_journal_id_ASTM
primary

;
Acta Crystallographica, Section B: Structural Crystallography and Crystal
Chemistry
; 1975 31 890 892 ACBCAR
loop_
_publ_author_name
'Wu, K.K.'
'Brown, I.D.'
_cell_length_a 6.472(2)
_cell_length_b 10.724(3)
_cell_length_c 5.259(2)
_cell_angle_alpha 90.
_cell_angle_beta 90.
_cell_angle_gamma 90.
_cell_volume 365.
_cell_formula_units_Z 4
_symmetry_space_group_name_H-M 'P 21 a b'
_symmetry_Int_Tables_number 29
_refine_ls_R_factor_all 0.042
loop_
_symmetry_equiv_pos_site_id
_symmetry_equiv_pos_as_xyz
1 'x, y+1/2, -z'
2 'x+1/2, -y+1/2, z'
3 'x+1/2, -y, -z'
4 'x, y, z'
loop_
_atom_type_symbol
_atom_type_oxidation_number
Na1+ 1
C4+ 4
O2- -2
H1+ 1
loop_
_atom_site_label
_atom_site_type_symbol
_atom_site_symmetry_multiplicity
_atom_site_Wyckoff_symbol
_atom_site_fract_x
_atom_site_fract_y
_atom_site_fract_z
_atom_site_B_iso_or_equiv
_atom_site_occupancy
_atom_site_attached_hydrogens
Na1 Na1+ 4 a 0 0.1932(5) 0.1392(9) . 1. 0
Na2 Na1+ 4 a 0.0643(12) 0.0012(5) -.3782(10) . 1. 0
C1 C4+ 4 a -.2145(9) 0.2546(2) 0.6024(4) . 1. 0
O1 O2- 4 a -.201(1) 0.1389(3) 0.5466(7) . 1. 0
O2 O2- 4 a -.2033(10) 0.3366(3) 0.4266(5) . 1. 0
O3 O2- 4 a -.2398(9) 0.2883(3) -.1650(6) . 1. 0
O4 O2- 4 a 0.0322(11) -.0296(3) 0.0692(6) . 1. 0
H1 H1+ 4 a 0.1464(14) -.0662(8) 0.1611(15) . 1. 0
H2 H1+ 4 a -.0805(13) -.0899(7) 0.1000(13) . 1. 0
loop_
_atom_site_aniso_label
_atom_site_aniso_type_symbol
_atom_site_aniso_U_11
_atom_site_aniso_U_22
_atom_site_aniso_U_33
_atom_site_aniso_U_12
_atom_site_aniso_U_13
_atom_site_aniso_U_23
Na1 Na1+ 0.0142(25) 0.0190(2) 0.0107(18) 0.0004(15) 0.0011(17) -.0001(14)
Na2 Na1+ 0.0156(24) 0.0139(18) 0.0218(24) 0.0036(16) -.0015(20) -.0018(16)
C1 C4+ 0.0052(7) 0.0089(8) 0.0125(8) -.0011(7) -.0006(9) -.0008(7)
O1 O2- 0.0150(12) 0.0084(10) 0.0316(14) 0.0005(12) -.0045(14) -.0046(10)
O2 O2- 0.0186(13) 0.0179(11) 0.0144(10) -.0002(14) -.0012(13) 0.0027(9)
O3 O2- 0.0164(16) 0.0267(13) 0.0122(11) -.0045(12) 0.0009(12) -.0026(9)
O4 O2- 0.0189(15) 0.0192(13) 0.0215(13) -.0009(14) -.0012(13) 0.0046(10)
H1 H1+ 0.0253(28) 0.0383(31) 0.0396(33) 0.0062(27) -.0038(29) 0.0030(29)
H2 H1+ 0.0268(26) 0.0280(29) 0.0262(24) 0.0025(23) 0.0038(22) -.0020(23)
#End of TTdata_1852-ICSD