
#(C) 2019 by FIZ Karlsruhe - Leibniz Institute for Information Infrastructure.  All rights reserved.
data_186554-ICSD
_database_code_ICSD 186554
_audit_creation_date 2013-08-01
_chemical_name_systematic 'Sodium hydrogen oxalate hydrate'
_chemical_formula_structural 'Na H (C2 O4) (H2 O)'
_chemical_formula_sum 'C2 H3 Na1 O5'
_exptl_crystal_density_diffrn 1.92
_cell_measurement_temperature 273.
_publ_section_title

;
Molecular and crystal structure analysis of an oxalate-bridged sodium 2D
polymer: [Na(mu1,1,2,3-oxalato)(di-mu1,1-H2O)]n
;
loop_
_citation_id
_citation_journal_full
_citation_year
_citation_journal_volume
_citation_page_first
_citation_page_last
_citation_journal_id_ASTM
primary 'Advanced Materials Research (Durnten-Zurich, Switzerland)' 2012 399 916
920 AMREFI
loop_
_publ_author_name
'Li, Jiaming'
'Xu, Shuqing'
'Shi, Zhongfeng'
_cell_length_a 5.6982(11)
_cell_length_b 6.5040(12)
_cell_length_c 6.6647(13)
_cell_angle_alpha 75.040(2)
_cell_angle_beta 84.990(3)
_cell_angle_gamma 70.072(3)
_cell_volume 224.34
_cell_formula_units_Z 2
_symmetry_space_group_name_H-M 'P -1'
_symmetry_Int_Tables_number 2
_refine_ls_R_factor_all 0.0331
loop_
_symmetry_equiv_pos_site_id
_symmetry_equiv_pos_as_xyz
1 '-x, -y, -z'
2 'x, y, z'
loop_
_atom_type_symbol
_atom_type_oxidation_number
O2- -2
C3+ 3
O2- -2
Na1+ 1
H1+ 1
loop_
_atom_site_label
_atom_site_type_symbol
_atom_site_symmetry_multiplicity
_atom_site_Wyckoff_symbol
_atom_site_fract_x
_atom_site_fract_y
_atom_site_fract_z
_atom_site_B_iso_or_equiv
_atom_site_occupancy
_atom_site_attached_hydrogens
O1 O2- 2 i 0.6118(2) 0.1659(2) 0.83241(19) 0.0225(3) 1 0
O2 O2- 2 i -0.1858(3) 0.3565(3) 0.0815(2) 0.0282(4) 1 0
O3 O2- 2 i 0.1730(3) 0.2368(2) 0.67230(19) 0.0271(4) 1 0
O4 O2- 2 i 0.3430(2) 0.2543(2) 0.35566(19) 0.0260(4) 1 0
C1 C3+ 2 i 0.5985(3) 0.2229(3) 0.6401(3) 0.0170(4) 1 0
C2 C3+ 2 i 0.3543(4) 0.2422(3) 0.5386(3) 0.0184(4) 1 0
O5 O2- 2 i 0.7627(2) 0.2649(2) 0.51516(19) 0.0272(4) 1 0
Na1 Na1+ 2 i 0.24060(14) 0.24843(12) 0.02727(11) 0.0251(2) 1 0
H1 H1+ 2 i -0.234(5) 0.313(5) 0.199(3) 0.064(9) 1 0
H2 H1+ 2 i -0.239(4) 0.298(4) 0.008(3) 0.048(8) 1 0
H3 H1+ 2 i 0.023(5) 0.240(4) 0.618(4) 0.068(9) 1 0
loop_
_atom_site_aniso_label
_atom_site_aniso_type_symbol
_atom_site_aniso_U_11
_atom_site_aniso_U_22
_atom_site_aniso_U_33
_atom_site_aniso_U_12
_atom_site_aniso_U_13
_atom_site_aniso_U_23
O1 O2- 0.0226(8) 0.0320(8) 0.0149(7) -0.0121(6) -0.0029(6) -0.0039(6)
O2 O2- 0.0284(8) 0.0391(9) 0.0218(8) -0.0177(7) 0.0006(7) -0.0067(7)
O3 O2- 0.0182(8) 0.0493(10) 0.0185(8) -0.0171(7) -0.0002(6) -0.0086(7)
O4 O2- 0.0272(8) 0.0381(9) 0.0146(7) -0.0129(7) -0.0042(6) -0.0056(6)
C1 C3+ 0.0185(10) 0.0184(10) 0.0156(10) -0.0076(8) -0.0022(8) -0.0037(8)
C2 C3+ 0.0183(10) 0.0196(10) 0.0179(10) -0.0077(8) -0.0024(8) -0.0027(8)
O5 O2- 0.0199(8) 0.0451(9) 0.0196(7) -0.0171(7) 0.0001(6) -0.0044(7)
Na1 Na1+ 0.0229(5) 0.0330(5) 0.0184(4) -0.0083(4) -0.0003(3) -0.0054(3)
#End of TTdata_186554-ICSD