
#(C) 2019 by FIZ Karlsruhe - Leibniz Institute for Information Infrastructure.  All rights reserved.
data_19-ICSD
_database_code_ICSD 19
_audit_creation_date 1980-01-01
_audit_update_record 2012-08-01
_chemical_name_systematic 'Tetrasodium carbonyldiphosphonate(IV) dihydrate'
_chemical_formula_structural 'Na4 (C O (P O3)2) (H2 O)2'
_chemical_formula_sum 'C1 H4 Na4 O9 P2'
_exptl_crystal_density_diffrn 2.24
_publ_section_title

;
The crystal and molecular structure of carbonyldiphosphonate tetrasodium
dihydrate
;
loop_
_citation_id
_citation_journal_full
_citation_year
_citation_journal_volume
_citation_page_first
_citation_page_last
_citation_journal_id_ASTM
primary

;
Acta Crystallographica, Section B: Structural Crystallography and Crystal
Chemistry
; 1976 32 488 492 ACBCAR
loop_
_publ_author_name
'Uchtman, V.A.'
'Jandacek, R.J.'
_cell_length_a 8.489(1)
_cell_length_b 8.489(1)
_cell_length_c 6.468(1)
_cell_angle_alpha 90.
_cell_angle_beta 90.
_cell_angle_gamma 90.
_cell_volume 466.1
_cell_formula_units_Z 2
_symmetry_space_group_name_H-M 'P -4'
_symmetry_Int_Tables_number 81
_refine_ls_R_factor_all 0.037
loop_
_symmetry_equiv_pos_site_id
_symmetry_equiv_pos_as_xyz
1 '-y, x, -z'
2 'y, -x, -z'
3 '-x, -y, z'
4 'x, y, z'
loop_
_atom_type_symbol
_atom_type_oxidation_number
P4+ 4
C2+ 2
O2- -2
H1+ 1
Na1+ 1
loop_
_atom_site_label
_atom_site_type_symbol
_atom_site_symmetry_multiplicity
_atom_site_Wyckoff_symbol
_atom_site_fract_x
_atom_site_fract_y
_atom_site_fract_z
_atom_site_B_iso_or_equiv
_atom_site_occupancy
_atom_site_attached_hydrogens
P1 P4+ 4 h 0.3313(1) -.0913(1) 0.2070(2) . 1. 0
C1 C2+ 2 g 0.5 0 0.3502(10) . 1. 0
O1 O2- 2 g 0.5 0 0.5454(8) . 1. 0
O2 O2- 4 h 0.3879(4) -.2624(4) 0.1937(5) . 1. 0
O3 O2- 4 h 0.1843(4) -.0699(5) 0.3366(5) . 1. 0
O4 O2- 4 h 0.3242(4) -.0110(4) -.0035(5) . 1. 0
O5 O2- 4 h 0.3201(5) 0.3467(5) 0.3423(5) . 1. 0
H1 H1+ 4 h 0.413(8) 0.324(8) 0.293(9) . 1. 0
H2 H1+ 4 h 0.311(9) 0.355(9) 0.461(16) . 1. 0
Na1 Na1+ 4 h 0.0708(2) 0.1813(2) 0.2987(3) . 1. 0
Na2 Na1+ 4 h 0.4614(3) 0.2006(3) 0.8620(3) . 1. 0
loop_
_atom_site_aniso_label
_atom_site_aniso_type_symbol
_atom_site_aniso_beta_11
_atom_site_aniso_beta_22
_atom_site_aniso_beta_33
_atom_site_aniso_beta_12
_atom_site_aniso_beta_13
_atom_site_aniso_beta_23
P1 P4+ 0.00274 0.00353 0.00284 -.00044 -.00001 0.00002
C1 C2+ 0.00505 0.00222 0.00427 0.00014 0 0
O1 O2- 0.01003 0.01028 0.00311 -.00459 0 0
O2 O2- 0.00519 0.00489 0.01107 -.00006 -.00158 -.00145
O3 O2- 0.00455 0.00845 0.00666 -.00013 0.00111 -.00103
O4 O2- 0.00822 0.00759 0.00471 -.00171 -.00171 0.00289
O5 O2- 0.00739 0.00983 0.01009 0.00208 -.00018 0.00226
Na1 Na1+ 0.00611 0.0067 0.00628 -.00074 -.00083 0.00286
Na2 Na1+ 0.00565 0.00719 0.00865 0.00047 0.0002 0.00329
#End of TTdata_19-ICSD