
#(C) 2019 by FIZ Karlsruhe - Leibniz Institute for Information Infrastructure.  All rights reserved.
data_192708-ICSD
_database_code_ICSD 192708
_audit_creation_date 2015-02-01
_chemical_name_systematic 'Trisodium carbonate (hydrogen carbonate) dihydrate'
_chemical_formula_structural 'Na3 (C O3) (H C O3) (H2 O)2'
_chemical_formula_sum 'C2 H5 Na3 O8'
_chemical_name_structure_type Na3H(CO3)2(H2O)2
_chemical_name_mineral Trona
_exptl_crystal_density_diffrn 2.16
_cell_measurement_temperature 100.
_publ_section_title

;
Trona at extreme conditions. A pollutant-sequestering material at high
pressures and low temperatures
;
loop_
_citation_id
_citation_journal_full
_citation_year
_citation_journal_volume
_citation_page_first
_citation_page_last
_citation_journal_id_ASTM
primary 'American Mineralogist' 2014 99 1973 1984 AMMIAY
loop_
_publ_author_name
'O'Bannon, Earl III'
'Beavers, Christine M.'
'Williams, Quentin'
_cell_length_a 20.366(3)
_cell_length_b 3.4583(5)
_cell_length_c 10.2946(13)
_cell_angle_alpha 90
_cell_angle_beta 106.483(9)
_cell_angle_gamma 90
_cell_volume 695.26
_cell_formula_units_Z 4
_symmetry_space_group_name_H-M 'C 1 2/c 1'
_symmetry_Int_Tables_number 15
_refine_ls_R_factor_all 0.0341
loop_
_symmetry_equiv_pos_site_id
_symmetry_equiv_pos_as_xyz
1 'x, -y, z+1/2'
2 '-x, -y, -z'
3 '-x, y, -z+1/2'
4 'x, y, z'
5 'x+1/2, -y+1/2, z+1/2'
6 '-x+1/2, -y+1/2, -z'
7 '-x+1/2, y+1/2, -z+1/2'
8 'x+1/2, y+1/2, z'
loop_
_atom_type_symbol
_atom_type_oxidation_number
Na1+ 1
C4+ 4
O2- -2
H1+ 1
O2- -2
H1+ 1
loop_
_atom_site_label
_atom_site_type_symbol
_atom_site_symmetry_multiplicity
_atom_site_Wyckoff_symbol
_atom_site_fract_x
_atom_site_fract_y
_atom_site_fract_z
_atom_site_B_iso_or_equiv
_atom_site_occupancy
_atom_site_attached_hydrogens
Na1 Na1+ 4 e 0. 0.2531(3) 0.75 0.0134(4) 1 0
Na2 Na1+ 8 f 0.15092(4) 0.1598(2) 0.42574(7) 0.0143(3) 1 0
C1 C4+ 8 f 0.09308(10) 0.7350(5) 0.60314(19) 0.0121(5) 1 0
O1 O2- 8 f 0.07272(7) 0.7454(4) 0.70811(13) 0.0132(4) 1 0
O2 O2- 8 f 0.15142(6) 0.5993(4) 0.60124(13) 0.0143(4) 1 0
O3 O2- 8 f 0.05416(7) 0.8715(4) 0.48697(13) 0.0136(4) 1 0
H1 H1+ 8 f 0.021(3) 0.935(16) 0.495(6) 0.02 0.5 0
O4 O2- 8 f 0.21200(7) -0.3380(4) 0.35447(15) 0.0150(4) 1 0
H2 H1+ 8 f 0.2527(11) -0.282(8) 0.360(3) 0.022 1 0
H3 H1+ 8 f 0.1949(13) -0.402(8) 0.273(2) 0.022 1 0
loop_
_atom_site_aniso_label
_atom_site_aniso_type_symbol
_atom_site_aniso_U_11
_atom_site_aniso_U_22
_atom_site_aniso_U_33
_atom_site_aniso_U_12
_atom_site_aniso_U_13
_atom_site_aniso_U_23
Na1 Na1+ 0.0157(6) 0.0104(6) 0.0135(6) 0. 0.0035(4) 0.
Na2 Na1+ 0.0176(5) 0.0116(5) 0.0138(5) -0.0015(3) 0.0043(3) -0.0009(3)
C1 C4+ 0.0132(10) 0.0074(9) 0.0143(10) -0.0039(7) 0.0016(7) -0.0021(6)
O1 O2- 0.0156(8) 0.0114(7) 0.0127(7) -0.0001(5) 0.0041(6) 0.0008(5)
O2 O2- 0.0138(7) 0.0137(7) 0.0146(7) 0.0009(5) 0.0028(5) -0.0009(5)
O3 O2- 0.0139(7) 0.0137(8) 0.0125(8) 0.0023(5) 0.0024(5) 0.0016(5)
O4 O2- 0.0165(7) 0.0144(8) 0.0140(7) -0.0019(5) 0.0041(5) -0.0013(5)
#End of TTdata_192708-ICSD