
#(C) 2019 by FIZ Karlsruhe - Leibniz Institute for Information Infrastructure.  All rights reserved.
data_237616-ICSD
_database_code_ICSD 237616
_audit_creation_date 2015-02-01
_chemical_name_systematic 'Sodium cobalt triformate'
_chemical_formula_structural 'Na Co (H C O O)3'
_chemical_formula_sum 'C3 H3 Co1 Na1 O6'
_exptl_crystal_density_diffrn 1.96
_cell_measurement_temperature 293.
_publ_section_title

;
Tuning the structure and magnetism of heterometallic sodium(1+)-cobalt(2+)
formate coordination polymers by varying the metal ratio and solvents
;
loop_
_citation_id
_citation_journal_full
_citation_year
_citation_journal_volume
_citation_page_first
_citation_page_last
_citation_journal_id_ASTM
primary 'Inorganic Chemistry' 2013 52 2862 2869 INOCAJ
loop_
_publ_author_name
'Zhao, Jiong-Peng'
'Han, Song-De'
'Zhao, Ran'
'Yang, Qian'
'Chang, Ze'
'Bu, Xian-He'
_cell_length_a 9.0327(10)
_cell_length_b 9.0327(10)
_cell_length_c 9.0327(10)
_cell_angle_alpha 90.
_cell_angle_beta 90.
_cell_angle_gamma 90.
_cell_volume 736.97
_cell_formula_units_Z 4
_symmetry_space_group_name_H-M 'I 21 3'
_symmetry_Int_Tables_number 199
_refine_ls_R_factor_all 0.0133
loop_
_symmetry_equiv_pos_site_id
_symmetry_equiv_pos_as_xyz
1 '-z+1/2, -x, y+1/2'
2 '-y+1/2, -z, x+1/2'
3 '-x+1/2, -y, z+1/2'
4 '-z, x+1/2, -y+1/2'
5 '-y, z+1/2, -x+1/2'
6 '-x, y+1/2, -z+1/2'
7 'z+1/2, -x+1/2, -y'
8 'y+1/2, -z+1/2, -x'
9 'x+1/2, -y+1/2, -z'
10 'z, x, y'
11 'y, z, x'
12 'x, y, z'
13 '-z, -x+1/2, y'
14 '-y, -z+1/2, x'
15 '-x, -y+1/2, z'
16 '-z+1/2, x, -y'
17 '-y+1/2, z, -x'
18 '-x+1/2, y, -z'
19 'z, -x, -y+1/2'
20 'y, -z, -x+1/2'
21 'x, -y, -z+1/2'
22 'z+1/2, x+1/2, y+1/2'
23 'y+1/2, z+1/2, x+1/2'
24 'x+1/2, y+1/2, z+1/2'
loop_
_atom_type_symbol
_atom_type_oxidation_number
Co2+ 2
Na1+ 1
O2- -2
C4+ 4
H1- -1
loop_
_atom_site_label
_atom_site_type_symbol
_atom_site_symmetry_multiplicity
_atom_site_Wyckoff_symbol
_atom_site_fract_x
_atom_site_fract_y
_atom_site_fract_z
_atom_site_B_iso_or_equiv
_atom_site_occupancy
_atom_site_attached_hydrogens
Co1 Co2+ 8 a -0.09271(3) 0.40729(3) 0.09271(3) 0.02829(17) 0.5 0
Na1 Na1+ 8 a -0.09271(3) 0.40729(3) 0.09271(3) 0.02829(17) 0.5 0
O1 O2- 24 c 0.13293(13) 0.33284(14) 0.04065(14) 0.0528(4) 1 0
C1 C4+ 12 b 0.25 0.3940(3) 0. 0.0507(6) 1 0
H1 H1- 12 b 0.25 0.4969 0. 0.061 1 0
loop_
_atom_site_aniso_label
_atom_site_aniso_type_symbol
_atom_site_aniso_U_11
_atom_site_aniso_U_22
_atom_site_aniso_U_33
_atom_site_aniso_U_12
_atom_site_aniso_U_13
_atom_site_aniso_U_23
Co1 Co2+ 0.02829(17) 0.02829(17) 0.02829(17) 0.00441(12) -0.00441(12)
-0.00441(12)
Na1 Na1+ 0.02829(17) 0.02829(17) 0.02829(17) 0.00441(12) -0.00441(12)
-0.00441(12)
O1 O2- 0.0444(7) 0.0553(7) 0.0588(8) 0.0012(5) 0.0083(6) -0.0107(6)
C1 C4+ 0.0485(15) 0.0409(13) 0.0627(15) 0. -0.0024(11) 0.
#End of TTdata_237616-ICSD