
#(C) 2019 by FIZ Karlsruhe - Leibniz Institute for Information Infrastructure.  All rights reserved.
data_239363-ICSD
_database_code_ICSD 239363
_audit_creation_date 2016-08-01
_chemical_name_systematic

;
poly[(di-mu2-aqua-k2 O:O)bis(mu5-oxalato-1:2k2 O1; 1k1 O2; 3:4:5k3 O3; 3k1
O4)(mu4-oxalato-1:2k2 O1; 2:3k2 O2; 3:4k2 O3; 4:1k2 O4)dizinc(II)disodium(I)]
;
_chemical_formula_structural 'C3 H2 Na O7 Zn'
_chemical_formula_sum 'C3 H2 Na1 O7 Zn1'
_chemical_name_structure_type Na2Mg2(C2O4)3(H2O)2
_exptl_crystal_density_diffrn 2.52
_cell_measurement_temperature 296.
_publ_section_title

;
Crystal structure of poly[(di-mu2-aqua-k2 O:O)bis(mu5-oxalato-1:2k2 O1; 1k1
O2; 3:4:5k3 O3; 3k1 O4)(mu4-oxalato-1:2k2 O1; 2:3k2 O2; 3:4k2 O3; 4:1k2
O4)dizinc(II)disodium(I)]
;
loop_
_citation_id
_citation_journal_full
_citation_year
_citation_journal_volume
_citation_page_first
_citation_page_last
_citation_journal_id_ASTM
primary 'Zeitschrift fuer Kristallographie - New Crystal Structures' 2016 231
225 226 ZKNSFT
loop_
_publ_author_name
'Zhou, Fang-Xia'
_cell_length_a 5.8671(13)
_cell_length_b 15.661(3)
_cell_length_c 6.9649(15)
_cell_angle_alpha 90
_cell_angle_beta 100.343(4)
_cell_angle_gamma 90
_cell_volume 629.56
_cell_formula_units_Z 4
_symmetry_space_group_name_H-M 'P 1 21/c 1'
_symmetry_Int_Tables_number 14
_refine_ls_R_factor_all 0.0488
loop_
_symmetry_equiv_pos_site_id
_symmetry_equiv_pos_as_xyz
1 'x, -y+1/2, z+1/2'
2 '-x, -y, -z'
3 '-x, y+1/2, -z+1/2'
4 'x, y, z'
loop_
_atom_type_symbol
_atom_type_oxidation_number
Zn2+ 2
O2- -2
H1+ 1
O2- -2
C3+ 3
Na1+ 1
loop_
_atom_site_label
_atom_site_type_symbol
_atom_site_symmetry_multiplicity
_atom_site_Wyckoff_symbol
_atom_site_fract_x
_atom_site_fract_y
_atom_site_fract_z
_atom_site_B_iso_or_equiv
_atom_site_occupancy
_atom_site_attached_hydrogens
Zn1 Zn2+ 4 e 0.76907(11) 0.10038(4) 0.71637(10) 0.0209(2) 1 0
O1 O2- 4 e 0.8814(7) -0.0229(3) 0.7570(6) 0.0241(10) 1 0
O2 O2- 4 e 1.0964(7) -0.1043(2) 0.9822(6) 0.0241(9) 1 0
O3 O2- 4 e 0.6879(6) 0.0852(2) 0.4166(6) 0.0212(9) 1 0
H1 H1+ 4 e 0.6966 0.03 0.3835 0.025 1 0
H2 H1+ 4 e 0.5567 0.1101 0.3799 0.025 1 0
O4 O2- 4 e 0.3560(6) 0.2993(3) 0.7889(7) 0.0284(11) 1 0
O5 O2- 4 e 0.0831(6) 0.1625(3) 0.6743(6) 0.0242(10) 1 0
O6 O2- 4 e 0.4023(6) 0.0807(2) 0.7277(6) 0.0230(10) 1 0
O7 O2- 4 e 0.6578(6) 0.2231(2) 0.7380(6) 0.0217(10) 1 0
C1 C3+ 4 e 0.2968(9) 0.1509(4) 0.7145(8) 0.0153(12) 1 0
C2 C3+ 4 e 0.4483(9) 0.2325(4) 0.7502(8) 0.0180(13) 1 0
C3 C3+ 4 e 0.9928(9) -0.0359(4) 0.9251(9) 0.0187(13) 1 0
Na1 Na1+ 4 e 0.9706(4) 0.18366(16) 0.3082(3) 0.0239(6) 1 0
loop_
_atom_site_aniso_label
_atom_site_aniso_type_symbol
_atom_site_aniso_U_11
_atom_site_aniso_U_22
_atom_site_aniso_U_33
_atom_site_aniso_U_12
_atom_site_aniso_U_13
_atom_site_aniso_U_23
Zn1 Zn2+ 0.0156(3) 0.0216(4) 0.0252(4) 0.0023(3) 0.0033(3) 0.0007(4)
O1 O2- 0.028(2) 0.024(2) 0.020(2) 0.0048(18) 0.005(2) 0.000(2)
O2 O2- 0.029(2) 0.019(2) 0.021(2) 0.0103(19) -0.0011(18) 0.002(2)
O3 O2- 0.0145(19) 0.023(2) 0.025(2) 0.0026(17) 0.0014(17) -0.0010(19)
O4 O2- 0.013(2) 0.021(2) 0.051(3) 0.0021(17) 0.005(2) -0.007(2)
O5 O2- 0.0101(19) 0.028(2) 0.036(3) -0.0040(17) 0.0056(18) 0.002(2)
O6 O2- 0.0131(19) 0.022(2) 0.034(3) -0.0006(17) 0.0049(19) -0.0023(19)
O7 O2- 0.0088(18) 0.019(2) 0.037(3) -0.0028(16) 0.0038(18) -0.004(2)
C1 C3+ 0.015(3) 0.019(3) 0.014(3) 0.006(2) 0.008(2) -0.003(3)
C2 C3+ 0.014(3) 0.021(3) 0.019(3) 0.002(2) 0.002(2) 0.001(3)
C3 C3+ 0.016(3) 0.019(3) 0.023(4) 0.001(2) 0.007(3) 0.001(3)
Na1 Na1+ 0.0149(11) 0.0308(14) 0.0268(14) 0.0007(10) 0.0056(10) -0.0008(11)
#End of TTdata_239363-ICSD