
#(C) 2019 by FIZ Karlsruhe - Leibniz Institute for Information Infrastructure.  All rights reserved.
data_239925-ICSD
_database_code_ICSD 239925
_audit_creation_date 2017-08-01
_chemical_name_systematic 'Triammonium sodium hexamethyldisilazides'
_chemical_formula_structural '(N H3)3 Na N (Si (C H3)3)2'
_chemical_formula_sum 'C6 H27 N4 Na1 Si2'
_exptl_crystal_density_diffrn 0.97
_cell_measurement_temperature 100.
_publ_section_title

;
Introducing a hydrogen-bond donor into a weakly nucleophilic Broensted base:
alkali metal hexamethyldisilazides (MHMDS, M = Li, Na, K, Rb and Cs) with
ammonia
;
loop_
_citation_id
_citation_journal_full
_citation_year
_citation_journal_volume
_citation_page_first
_citation_page_last
_citation_journal_id_ASTM
primary 'Chemistry - A European Journal' 2016 22 12340 12346 CEUJED
loop_
_publ_author_name
'Neufeld, Roman'
'Michel, Reent'
'Herbst-Irmer, Regine'
'Schoene, Ralf'
'Stalke, Dietmar'
_cell_length_a 9.256(2)
_cell_length_b 11.781(2)
_cell_length_c 15.108(2)
_cell_angle_alpha 90
_cell_angle_beta 102.43(2)
_cell_angle_gamma 90
_cell_volume 1608.83
_cell_formula_units_Z 4
_symmetry_space_group_name_H-M 'P 1 21/n 1'
_symmetry_Int_Tables_number 14
_refine_ls_R_factor_all 0.0216
loop_
_symmetry_equiv_pos_site_id
_symmetry_equiv_pos_as_xyz
1 '-x+1/2, y+1/2, -z+1/2'
2 '-x, -y, -z'
3 'x+1/2, -y+1/2, z+1/2'
4 'x, y, z'
loop_
_atom_type_symbol
_atom_type_oxidation_number
C4- -4
H1+ 1
C4- -4
H1+ 1
C4- -4
H1+ 1
C4- -4
H1+ 1
C4- -4
H1+ 1
C4- -4
H1+ 1
N3- -3
H1+ 1
N3- -3
H1+ 1
N3- -3
H1+ 1
N3- -3
H1+ 1
N3- -3
H1+ 1
Na1+ 1
Si4+ 4
loop_
_atom_site_label
_atom_site_type_symbol
_atom_site_symmetry_multiplicity
_atom_site_Wyckoff_symbol
_atom_site_fract_x
_atom_site_fract_y
_atom_site_fract_z
_atom_site_B_iso_or_equiv
_atom_site_occupancy
_atom_site_attached_hydrogens
C1 C4- 4 e 0.58057(11) 0.31948(9) 0.21508(6) 0.0329(2) 1 0
H1 H1+ 4 e 0.5181 0.2586 0.2303 0.049 1 0
H2 H1+ 4 e 0.653 0.2874 0.1834 0.049 1 0
H3 H1+ 4 e 0.5187 0.375 0.1758 0.049 1 0
C2 C4- 4 e 0.78301(11) 0.51510(8) 0.28401(7) 0.0325(2) 1 0
H4 H1+ 4 e 0.8322 0.5595 0.3368 0.049 1 0
H5 H1+ 4 e 0.7126 0.5635 0.243 0.049 1 0
H6 H1+ 4 e 0.8571 0.4861 0.2522 0.049 1 0
C3 C4- 4 e 0.80252(12) 0.06713(8) 0.34108(7) 0.0358(2) 1 0
H7 H1+ 4 e 0.9086 0.0682 0.3417 0.054 1 0
H8 H1+ 4 e 0.7464 0.0854 0.2801 0.054 1 0
H9 H1+ 4 e 0.7743 -0.0085 0.3584 0.054 1 0
C4 C4- 4 e 0.52893(10) 0.45987(9) 0.37120(7) 0.0327(2) 1 0
H10 H1+ 4 e 0.4634 0.4007 0.3859 0.049 1 0
H11 H1+ 4 e 0.4717 0.512 0.3265 0.049 1 0
H12 H1+ 4 e 0.5732 0.502 0.4263 0.049 1 0
C5 C4- 4 e 0.87617(12) 0.13266(9) 0.53812(6) 0.0344(2) 1 0
H13 H1+ 4 e 0.8576 0.1851 0.5848 0.052 1 0
H14 H1+ 4 e 0.9812 0.1352 0.536 0.052 1 0
H15 H1+ 4 e 0.8497 0.0554 0.5526 0.052 1 0
C6 C4- 4 e 0.56306(11) 0.14819(10) 0.43404(8) 0.0386(2) 1 0
H16 H1+ 4 e 0.5511 0.0676 0.4469 0.058 1 0
H17 H1+ 4 e 0.4955 0.1685 0.3769 0.058 1 0
H18 H1+ 4 e 0.5403 0.1942 0.4833 0.058 1 0
N1 N3- 4 e 0.79585(7) 0.30969(6) 0.39716(5) 0.01981(14) 1 0
N2 N3- 4 e 1.2427(2) 0.2634(4) 0.5256(2) 0.0440(6) 0.857(16) 0
H19 H1+ 4 e 1.272(2) 0.2027(14) 0.5035(12) 0.105(5) 0.857(16) 0
H20 H1+ 4 e 1.3206(15) 0.3028(15) 0.5434(13) 0.105(5) 0.857(16) 0
H21 H1+ 4 e 1.2169(18) 0.2428(17) 0.5735(9) 0.105(5) 0.857(16) 0
N3 N3- 4 e 1.2286(15) 0.2305(17) 0.5067(11) 0.0440(6) 0.143(16) 0
H22 H1+ 4 e 1.310(5) 0.226(8) 0.489(5) 0.105(5) 0.143(16) 0
H23 H1+ 4 e 1.197(6) 0.163(3) 0.508(6) 0.105(5) 0.143(16) 0
H24 H1+ 4 e 1.252(10) 0.252(6) 0.562(2) 0.105(5) 0.143(16) 0
N4 N3- 4 e 1.16608(9) 0.54847(7) 0.42187(5) 0.02908(17) 1 0
H25 H1+ 4 e 1.1232(12) 0.5926(9) 0.3780(7) 0.044 1 0
H26 H1+ 4 e 1.2568(10) 0.5412(9) 0.4121(8) 0.044 1 0
H27 H1+ 4 e 1.1776(13) 0.5873(9) 0.4695(7) 0.044 1 0
N5 N3- 4 e 1.1336(3) 0.30728(12) 0.27333(7) 0.0355(4) 0.902(7) 0
H28 H1+ 4 e 1.0750(18) 0.3311(16) 0.2255(8) 0.094(4) 0.902(7) 0
H29 H1+ 4 e 1.2172(15) 0.3368(16) 0.2719(11) 0.094(4) 0.902(7) 0
H30 H1+ 4 e 1.146(2) 0.2376(10) 0.2656(11) 0.094(4) 0.902(7) 0
N6 N3- 4 e 1.074(2) 0.2863(11) 0.2692(7) 0.0355(4) 0.098(7) 0
H31 H1+ 4 e 1.092(15) 0.335(3) 0.229(4) 0.094(4) 0.098(7) 0
H32 H1+ 4 e 1.145(10) 0.237(9) 0.2682(19) 0.094(4) 0.098(7) 0
H33 H1+ 4 e 0.998(6) 0.251(10) 0.236(4) 0.094(4) 0.098(7) 0
Na1 Na1+ 4 e 1.04801(4) 0.36045(3) 0.41202(2) 0.02708(9) 1 0
Si1 Si4+ 4 e 0.68081(2) 0.39188(2) 0.32266(2) 0.02049(7) 1 0
Si2 Si4+ 4 e 0.76062(2) 0.17571(2) 0.42426(2) 0.02104(7) 1 0
loop_
_atom_site_aniso_label
_atom_site_aniso_type_symbol
_atom_site_aniso_U_11
_atom_site_aniso_U_22
_atom_site_aniso_U_33
_atom_site_aniso_U_12
_atom_site_aniso_U_13
_atom_site_aniso_U_23
C1 C4- 0.0347(5) 0.0379(5) 0.0218(4) -0.0019(4) -0.0037(4) 0.0011(4)
C2 C4- 0.0300(4) 0.0278(4) 0.0372(5) -0.0004(4) 0.0015(4) 0.0109(4)
C3 C4- 0.0476(6) 0.0250(4) 0.0326(5) 0.0045(4) 0.0037(4) -0.0043(4)
C4 C4- 0.0248(4) 0.0367(5) 0.0351(5) 0.0103(4) 0.0034(4) 0.0022(4)
C5 C4- 0.0396(5) 0.0341(5) 0.0260(4) 0.0048(4) -0.0005(4) 0.0081(4)
C6 C4- 0.0293(5) 0.0429(6) 0.0434(6) -0.0072(4) 0.0076(4) 0.0113(5)
N1 N3- 0.0178(3) 0.0207(3) 0.0194(3) 0.0009(2) 0.0006(2) 0.0006(2)
N2 N3- 0.0323(6) 0.0540(14) 0.0428(10) 0.0065(7) 0.0017(6) 0.0064(11)
N3 N3- 0.0323(6) 0.0540(14) 0.0428(10) 0.0065(7) 0.0017(6) 0.0064(11)
N4 N3- 0.0269(4) 0.0330(4) 0.0264(4) -0.0032(3) 0.0037(3) -0.0062(3)
N5 N3- 0.0453(10) 0.0274(5) 0.0331(5) 0.0022(6) 0.0067(5) -0.0041(4)
N6 N3- 0.0453(10) 0.0274(5) 0.0331(5) 0.0022(6) 0.0067(5) -0.0041(4)
Na1 Na1+ 0.02006(17) 0.02997(19) 0.03029(18) -0.00117(13) 0.00340(13)
-0.00112(14)
Si1 Si4+ 0.01813(11) 0.02186(12) 0.01967(11) 0.00111(8) 0.00007(8) 0.00192(8)
Si2 Si4+ 0.02147(12) 0.02061(12) 0.01974(12) 0.00033(8) 0.00156(8) 0.00186(8)
#End of TTdata_239925-ICSD