
#(C) 2019 by FIZ Karlsruhe - Leibniz Institute for Information Infrastructure.  All rights reserved.
data_240730-ICSD
_database_code_ICSD 240730
_audit_creation_date 2007-04-01
_audit_update_record 2012-02-01
_chemical_name_systematic 'Diaquatetrasodium(I) pentaoxalatodilanthanate(III)'
_chemical_formula_structural '(Na4 (H2 O)2) (La2 (C2 O4)5)'
_chemical_formula_sum 'C10 H4 La2 Na4 O22'
_chemical_name_structure_type Na4(H2O)2La2(C2O4)5
_exptl_crystal_density_diffrn 2.6
_publ_section_title 'Diaquatetrasodium(I) pentaoxalatodilanthanate(III)'
loop_
_citation_id
_citation_journal_full
_citation_year
_citation_journal_volume
_citation_page_first
_citation_page_last
_citation_journal_id_ASTM
primary 'Acta Crystallographica, Section E: Structure Reports Online' 2007 63
m316 m318 ACSEBH
loop_
_publ_author_name
'Lu Hui'
'Fu Yunlong'
'Yang Junying'
'Ng Seik Weng'
_cell_length_a 7.8410(4)
_cell_length_b 11.6990(7)
_cell_length_c 12.0084(7)
_cell_angle_alpha 90.
_cell_angle_beta 100.9430(10)
_cell_angle_gamma 90.
_cell_volume 1081.52
_cell_formula_units_Z 2
_symmetry_space_group_name_H-M 'P 1 21/n 1'
_symmetry_Int_Tables_number 14
_refine_ls_R_factor_all 0.029
loop_
_symmetry_equiv_pos_site_id
_symmetry_equiv_pos_as_xyz
1 '-x+1/2, y+1/2, -z+1/2'
2 '-x, -y, -z'
3 'x+1/2, -y+1/2, z+1/2'
4 'x, y, z'
loop_
_atom_type_symbol
_atom_type_oxidation_number
La3+ 3
Na1+ 1
O2- -2
H1+ 1
C3+ 3
loop_
_atom_site_label
_atom_site_type_symbol
_atom_site_symmetry_multiplicity
_atom_site_Wyckoff_symbol
_atom_site_fract_x
_atom_site_fract_y
_atom_site_fract_z
_atom_site_B_iso_or_equiv
_atom_site_occupancy
_atom_site_attached_hydrogens
La1 La3+ 4 e 0.62107(3) 0.31399(2) 0.32586(2) 0.01060(10) 1 0
Na1 Na1+ 4 e 0.8572(3) 0.2940(2) 0.0732(2) 0.0251(5) 1 0
Na2 Na1+ 4 e 0.8874(2) 0.6879(2) 0.6665(2) 0.0221(5) 1 0
O1 O2- 4 e 0.7053(5) 0.4773(3) 0.4665(3) 0.0248(8) 1 0
O2 O2- 4 e 0.6152(4) 0.6156(3) 0.5690(3) 0.0192(7) 1 0
O3 O2- 4 e 0.5319(5) 0.5064(3) 0.2351(3) 0.0249(8) 1 0
O4 O2- 4 e 0.6390(5) 0.6846(3) 0.2494(3) 0.0202(7) 1 0
O5 O2- 4 e 0.8582(5) 0.4261(3) 0.2457(3) 0.0189(7) 1 0
O6 O2- 4 e 0.9374(5) 0.6001(3) 0.1986(3) 0.0242(8) 1 0
O7 O2- 4 e 0.5832(5) 0.2823(4) 0.1122(3) 0.0242(8) 1 0
O8 O2- 4 e 0.4189(5) 0.2199(4) -0.0473(3) 0.0241(8) 1 0
O9 O2- 4 e 0.2985(5) 0.2969(3) 0.2059(3) 0.0218(8) 1 0
O10 O2- 4 e 0.1324(5) 0.2764(4) 0.0334(3) 0.0242(8) 1 0
O11 O2- 4 e 0.7659(6) 0.3873(4) -0.0995(4) 0.0360(10) 1 0
H1 H1+ 4 e 0.681(5) 0.431(5) -0.125(5) 0.04(2) 1 0
H2 H1+ 4 e 0.848(6) 0.399(6) -0.135(6) 0.06(3) 1 0
C1 C3+ 4 e 0.5940(5) 0.5262(4) 0.5106(4) 0.0138(9) 1 0
C2 C3+ 4 e 0.6515(6) 0.5782(4) 0.2394(4) 0.0162(9) 1 0
C3 C3+ 4 e 0.8327(6) 0.5310(4) 0.2273(4) 0.0150(9) 1 0
C4 C3+ 4 e 0.4387(6) 0.2578(4) 0.0506(4) 0.0148(9) 1 0
C5 C3+ 4 e 0.2780(6) 0.2784(4) 0.1024(4) 0.0145(9) 1 0
loop_
_atom_site_aniso_label
_atom_site_aniso_type_symbol
_atom_site_aniso_U_11
_atom_site_aniso_U_22
_atom_site_aniso_U_33
_atom_site_aniso_U_12
_atom_site_aniso_U_13
_atom_site_aniso_U_23
La1 La3+ 0.0114(2) 0.01040(10) 0.0103(2) 0.00010(10) 0.00300(10) -0.00100(10)
Na1 Na1+ 0.0120(10) 0.0410(10) 0.0230(10) 0.0040(10) 0.0050(10) 0.0020(10)
Na2 Na1+ 0.0110(10) 0.0360(10) 0.0190(10) -0.0040(10) 0.0040(10) 0.0020(10)
O1 O2- 0.018(2) 0.026(2) 0.033(2) -0.004(2) 0.010(2) -0.016(2)
O2 O2- 0.017(2) 0.019(2) 0.021(2) -0.0030(10) 0.0030(10) -0.0090(10)
O3 O2- 0.023(2) 0.013(2) 0.041(2) -0.0010(10) 0.009(2) 0.006(2)
O4 O2- 0.026(2) 0.010(2) 0.027(2) 0.0010(10) 0.011(2) 0.0000(10)
O5 O2- 0.025(2) 0.010(2) 0.023(2) 0.0040(10) 0.0080(10) 0.0010(10)
O6 O2- 0.016(2) 0.019(2) 0.040(2) 0.0000(10) 0.012(2) 0.005(2)
O7 O2- 0.019(2) 0.038(2) 0.016(2) -0.005(2) 0.0050(10) -0.005(2)
O8 O2- 0.020(2) 0.039(2) 0.014(2) -0.001(2) 0.0060(10) -0.007(2)
O9 O2- 0.017(2) 0.034(2) 0.016(2) -0.002(2) 0.0080(10) -0.007(2)
O10 O2- 0.016(2) 0.038(2) 0.019(2) 0.001(2) 0.0040(10) -0.006(2)
O11 O2- 0.026(2) 0.045(3) 0.038(2) 0.013(2) 0.011(2) 0.017(2)
C1 C3+ 0.009(2) 0.018(2) 0.014(2) -0.002(2) -0.001(2) 0.000(2)
C2 C3+ 0.021(2) 0.015(2) 0.013(2) 0.000(2) 0.005(2) 0.004(2)
C3 C3+ 0.011(2) 0.017(2) 0.016(2) 0.004(2) 0.000(2) -0.003(2)
C4 C3+ 0.0051(19) 0.026(2) 0.013(2) 0.000(2) 0.000(2) 0.001(2)
C5 C3+ 0.009(2) 0.018(2) 0.015(2) 0.000(2) 0.000(2) -0.001(2)
#End of TTdata_240730-ICSD