
#(C) 2019 by FIZ Karlsruhe - Leibniz Institute for Information Infrastructure.  All rights reserved.
data_241216-ICSD
_database_code_ICSD 241216
_audit_creation_date 2008-08-01
_audit_update_record 2019-02-01
_chemical_name_systematic 'Trisodium tetraquatris(oxalato)ferrate(III) hydrate'
_chemical_formula_structural '(Na3 Fe (C2 O4)3 (H2 O)4) (H2 O)'
_chemical_formula_sum 'C6 H10 Fe1 Na3 O17'
_chemical_name_structure_type Na3Fe(C2O4)3(H2O)5
_exptl_crystal_density_diffrn 1.92
_cell_measurement_temperature 293.
_publ_section_title

;
Bis and tris(oxalato)ferrate(III) complexes as precursors of polynuclear
compounds
;
loop_
_citation_id
_citation_journal_full
_citation_year
_citation_journal_volume
_citation_page_first
_citation_page_last
_citation_journal_id_ASTM
primary CrystEngComm 2005 7 57 66 CRECF4
loop_
_publ_author_name
'Armentano, D.'
'de Munno, G.'
'Lloret, F.'
'Julve, M.'
_cell_length_a 17.404(4)
_cell_length_b 12.702(3)
_cell_length_c 15.220(5)
_cell_angle_alpha 90.
_cell_angle_beta 100.46(2)
_cell_angle_gamma 90.
_cell_volume 3308.7
_cell_formula_units_Z 8
_symmetry_space_group_name_H-M 'C 1 2/c 1'
_symmetry_Int_Tables_number 15
_refine_ls_R_factor_all 0.057
loop_
_symmetry_equiv_pos_site_id
_symmetry_equiv_pos_as_xyz
1 'x, -y, z+1/2'
2 '-x, -y, -z'
3 '-x, y, -z+1/2'
4 'x, y, z'
5 'x+1/2, -y+1/2, z+1/2'
6 '-x+1/2, -y+1/2, -z'
7 '-x+1/2, y+1/2, -z+1/2'
8 'x+1/2, y+1/2, z'
loop_
_atom_type_symbol
_atom_type_oxidation_number
Fe3+ 3
O2- -2
C3+ 3
O2- -2
Na1+ 1
O2- -2
C3+ 3
O2- -2
Na1+ 1
O2- -2
C3+ 3
O2- -2
Na1+ 1
O2- -2
H1+ 1
O2- -2
H1+ 1
O2- -2
H1+ 1
O2- -2
H1+ 1
O2- -2
H1+ 1
loop_
_atom_site_label
_atom_site_type_symbol
_atom_site_symmetry_multiplicity
_atom_site_Wyckoff_symbol
_atom_site_fract_x
_atom_site_fract_y
_atom_site_fract_z
_atom_site_B_iso_or_equiv
_atom_site_occupancy
_atom_site_attached_hydrogens
Fe1 Fe3+ 8 f 0.19164(3) 0.13442(4) 0.73278(4) 0.02342(17) 1 0
O1 O2- 8 f 0.26811(15) 0.1034(2) 0.65219(18) 0.0317(6) 1 0
O2 O2- 8 f 0.29220(15) 0.1715(2) 0.81618(18) 0.0303(6) 1 0
C1 C3+ 8 f 0.3406(2) 0.1176(3) 0.6873(3) 0.0264(8) 1 0
C2 C3+ 8 f 0.3548(2) 0.1522(3) 0.7863(3) 0.0251(8) 1 0
O3 O2- 8 f 0.39657(16) 0.1080(3) 0.6487(2) 0.0379(7) 1 0
O4 O2- 8 f 0.42193(16) 0.1598(2) 0.82757(19) 0.0328(6) 1 0
Na1 Na1+ 4 e 0.5 0.00220(18) 0.75 0.0377(6) 1 0
O5 O2- 8 f 0.10322(16) 0.0578(2) 0.65358(18) 0.0304(6) 1 0
O6 O2- 8 f 0.19392(16) -0.0017(2) 0.80016(19) 0.0324(6) 1 0
C3 C3+ 8 f 0.1399(2) -0.0677(3) 0.7699(2) 0.0258(7) 1 0
C4 C3+ 8 f 0.0851(2) -0.0325(3) 0.6825(2) 0.0263(8) 1 0
O7 O2- 8 f 0.03159(17) -0.0895(2) 0.6488(2) 0.0382(7) 1 0
O8 O2- 8 f 0.12823(17) -0.1525(2) 0.8042(2) 0.0340(7) 1 0
Na2 Na1+ 4 e 0. -0.22967(17) 0.75 0.0327(5) 1 0
O9 O2- 8 f 0.12927(17) 0.1995(2) 0.81847(19) 0.0338(6) 1 0
O10 O2- 8 f 0.16442(17) 0.2714(2) 0.67124(18) 0.0318(6) 1 0
C5 C3+ 8 f 0.1045(2) 0.2932(3) 0.7989(3) 0.0315(8) 1 0
C6 C3+ 8 f 0.1251(2) 0.3364(3) 0.7111(3) 0.0279(8) 1 0
O11 O2- 8 f 0.0671(2) 0.3478(3) 0.8427(2) 0.0516(9) 1 0
O12 O2- 8 f 0.10352(18) 0.4237(2) 0.6831(2) 0.0414(7) 1 0
Na3 Na1+ 8 f 0.04287(11) 0.11190(16) 0.50017(13) 0.0451(5) 1 0
Na4 Na1+ 8 f 0.12115(15) 0.36955(19) 0.51643(15) 0.0621(6) 1 0
O13 O2- 8 f -0.0032(2) 0.2943(3) 0.5040(2) 0.0543(9) 1 0
H1 H1+ 8 f -0.040(2) 0.314(5) 0.4506(18) 0.06 1 0
H2 H1+ 8 f -0.035(2) 0.315(5) 0.547(2) 0.06 1 0
O14 O2- 8 f -0.0831(2) 0.0651(3) 0.5364(2) 0.0498(8) 1 0
H3 H1+ 8 f -0.129(2) 0.088(4) 0.497(3) 0.06 1 0
H4 H1+ 8 f -0.087(3) 0.099(4) 0.5916(18) 0.06 1 0
O15 O2- 8 f 0.1647(2) 0.1940(3) 0.4843(2) 0.0518(9) 1 0
H5 H1+ 8 f 0.2158(15) 0.174(5) 0.516(3) 0.06 1 0
H6 H1+ 8 f 0.171(3) 0.174(5) 0.4253(14) 0.06 1 0
O16 O2- 8 f 0.2028(4) 0.5053(6) 0.5253(3) 0.117(3) 1 0
H7 H1+ 8 f 0.237(2) 0.518(5) 0.5812(16) 0.06 1 0
H8 H1+ 8 f 0.238(2) 0.503(5) 0.484(2) 0.06 1 0
O17 O2- 8 f 0.2863(4) 0.6567(8) 0.4310(7) 0.196(5) 1 0
H9 H1+ 8 f 0.2370(18) 0.621(4) 0.423(3) 0.06 1 0
H10 H1+ 8 f 0.290(3) 0.666(5) 0.3696(13) 0.06 1 0
loop_
_atom_site_aniso_label
_atom_site_aniso_type_symbol
_atom_site_aniso_U_11
_atom_site_aniso_U_22
_atom_site_aniso_U_33
_atom_site_aniso_U_12
_atom_site_aniso_U_13
_atom_site_aniso_U_23
Fe1 Fe3+ 0.0195(3) 0.0222(3) 0.0294(3) -0.0017(2) 0.0068(2) -0.0003(2)
O1 O2- 0.0229(13) 0.0420(16) 0.0310(14) -0.0015(12) 0.0068(11) -0.0096(12)
O2 O2- 0.0247(13) 0.0355(15) 0.0315(14) -0.0053(12) 0.0073(11) -0.0073(12)
C1 C3+ 0.0208(17) 0.0246(18) 0.035(2) 0.0001(14) 0.0077(15) 0.0008(15)
C2 C3+ 0.0234(18) 0.0218(17) 0.0316(19) -0.0044(14) 0.0086(15) 0.0051(14)
O3 O2- 0.0272(14) 0.0496(18) 0.0400(16) 0.0030(13) 0.0150(12) 0.0006(14)
O4 O2- 0.0239(13) 0.0355(15) 0.0370(15) -0.0047(11) 0.0001(11) 0.0023(12)
Na1 Na1+ 0.0267(11) 0.0270(11) 0.0612(16) 0. 0.0124(11) 0.
O5 O2- 0.0285(14) 0.0285(14) 0.0328(14) -0.0059(11) 0.0018(11) 0.0068(12)
O6 O2- 0.0302(14) 0.0264(14) 0.0374(15) -0.0045(11) -0.0026(12) 0.0046(12)
C3 C3+ 0.0251(17) 0.0241(18) 0.0295(18) 0.0020(15) 0.0081(15) -0.0001(15)
C4 C3+ 0.0240(18) 0.0293(19) 0.0257(18) -0.0026(15) 0.0050(14) 0.0002(15)
O7 O2- 0.0358(16) 0.0388(17) 0.0371(16) -0.0149(13) -0.0011(12) 0.0040(13)
O8 O2- 0.0354(15) 0.0267(14) 0.0378(16) -0.0032(12) 0.0015(12) 0.0077(12)
Na2 Na1+ 0.0276(11) 0.0254(11) 0.0487(13) 0. 0.0163(10) 0.
O9 O2- 0.0344(15) 0.0337(15) 0.0374(15) 0.0076(12) 0.0172(12) 0.0063(12)
O10 O2- 0.0381(15) 0.0266(14) 0.0349(15) 0.0024(12) 0.0174(12) 0.0030(11)
C5 C3+ 0.031(2) 0.033(2) 0.033(2) 0.0056(17) 0.0119(16) 0.0013(17)
C6 C3+ 0.0254(18) 0.0287(19) 0.0302(19) -0.0021(15) 0.0067(15) 0.0016(15)
O11 O2- 0.061(2) 0.049(2) 0.054(2) 0.0234(17) 0.0338(17) 0.0066(16)
O12 O2- 0.0434(18) 0.0286(15) 0.0567(19) 0.0086(13) 0.0209(15) 0.0106(14)
Na3 Na1+ 0.0402(10) 0.0479(11) 0.0452(10) -0.0039(8) 0.0025(8) 0.0053(8)
Na4 Na1+ 0.0738(15) 0.0656(14) 0.0498(12) -0.0255(12) 0.0194(11) -0.0032(10)
O13 O2- 0.051(2) 0.069(2) 0.0427(19) 0.0042(18) 0.0089(15) 0.0008(18)
O14 O2- 0.0426(19) 0.060(2) 0.048(2) 0.0053(16) 0.0105(15) -0.0019(17)
O15 O2- 0.048(2) 0.066(2) 0.0406(18) -0.0060(18) 0.0060(15) -0.0046(17)
O16 O2- 0.145(5) 0.158(6) 0.056(3) -0.104(5) 0.037(3) -0.038(3)
O17 O2- 0.070(4) 0.255(10) 0.264(10) 0.025(5) 0.036(5) 0.221(9)
#End of TTdata_241216-ICSD