
#(C) 2019 by FIZ Karlsruhe - Leibniz Institute for Information Infrastructure.  All rights reserved.
data_243498-ICSD
_database_code_ICSD 243498
_audit_creation_date 2017-08-01
_chemical_name_systematic 'Sodium manganese tris(formate)'
_chemical_formula_structural 'Na Mn (H C O2)3'
_chemical_formula_sum 'C3 H3 Mn1 Na1 O6'
_chemical_name_structure_type Na(Mn(HCOO)3)
_exptl_crystal_density_diffrn 1.85
_cell_measurement_temperature 150.
_publ_section_title

;
Transition-mtal dependent cation disorder in the chiral cubic AB(HCO2)3
metal-organic frameworks (A = Li or Na, B = Mn or Co)
;
loop_
_citation_id
_citation_journal_full
_citation_year
_citation_journal_volume
_citation_page_first
_citation_page_last
_citation_journal_id_ASTM
primary 'Zeitschrift fuer Anorganische und Allgemeine Chemie' 2017 643 287 293
ZAACAB
loop_
_publ_author_name
'Aston, James C.'
'Saines, Paul J.'
_cell_length_a 9.14555(18)
_cell_length_b 9.14555(18)
_cell_length_c 9.14555(18)
_cell_angle_alpha 90.
_cell_angle_beta 90.
_cell_angle_gamma 90.
_cell_volume 764.95
_cell_formula_units_Z 4
_symmetry_space_group_name_H-M 'P 21 3'
_symmetry_Int_Tables_number 198
_refine_ls_R_factor_all 0.0208
loop_
_symmetry_equiv_pos_site_id
_symmetry_equiv_pos_as_xyz
1 '-z+1/2, -x, y+1/2'
2 '-y+1/2, -z, x+1/2'
3 '-x+1/2, -y, z+1/2'
4 '-z, x+1/2, -y+1/2'
5 '-y, z+1/2, -x+1/2'
6 '-x, y+1/2, -z+1/2'
7 'z+1/2, -x+1/2, -y'
8 'y+1/2, -z+1/2, -x'
9 'x+1/2, -y+1/2, -z'
10 'z, x, y'
11 'y, z, x'
12 'x, y, z'
loop_
_atom_type_symbol
_atom_type_oxidation_number
Mn2+ 2
Na1+ 1
O2- -2
C2+ 2
H1+ 1
O2- -2
loop_
_atom_site_label
_atom_site_type_symbol
_atom_site_symmetry_multiplicity
_atom_site_Wyckoff_symbol
_atom_site_fract_x
_atom_site_fract_y
_atom_site_fract_z
_atom_site_B_iso_or_equiv
_atom_site_occupancy
_atom_site_attached_hydrogens
Mn1 Mn2+ 4 a 0.88377(3) 0.38377(3) 0.11623(3) 0.00896(15) 1 0
Na1 Na1+ 4 a 1.06361(9) 0.06361(9) 0.06361(9) 0.0107(3) 1 0
O1 O2- 12 b 0.66169(17) 0.45580(17) 0.17151(16) 0.0157(4) 1 0
C1 C2+ 12 b 0.6139(3) 0.5140(2) 0.2856(2) 0.0162(4) 1 0
H1 H1+ 12 b 0.5172 0.5452 0.2835 0.019 1 0
O2 O2- 12 b 0.68170(15) 0.53451(15) 0.40118(15) 0.0137(3) 1 0
loop_
_atom_site_aniso_label
_atom_site_aniso_type_symbol
_atom_site_aniso_U_11
_atom_site_aniso_U_22
_atom_site_aniso_U_33
_atom_site_aniso_U_12
_atom_site_aniso_U_13
_atom_site_aniso_U_23
Mn1 Mn2+ 0.00896(15) 0.00896(15) 0.00896(15) 0.00046(13) -0.00046(13)
-0.00046(13)
Na1 Na1+ 0.0107(3) 0.0107(3) 0.0107(3) 0.0011(3) 0.0011(3) 0.0011(3)
O1 O2- 0.0126(7) 0.0231(8) 0.0114(7) 0.0020(6) 0.0004(6) -0.0055(7)
C1 C2+ 0.0103(9) 0.0255(12) 0.0130(10) 0.0034(10) 0.0016(10) -0.0018(9)
O2 O2- 0.0140(7) 0.0179(8) 0.0093(7) 0.0006(6) -0.0007(6) -0.0024(6)
#End of TTdata_243498-ICSD