
#(C) 2019 by FIZ Karlsruhe - Leibniz Institute for Information Infrastructure.  All rights reserved.
data_243500-ICSD
_database_code_ICSD 243500
_audit_creation_date 2017-08-01
_chemical_name_systematic 'Lithium cobalt tris(formate)'
_chemical_formula_structural 'Na Co (H C O2)3'
_chemical_formula_sum 'C3 H3 Co1 Na1 O6'
_chemical_name_structure_type Na(Mn(HCOO)3)
_exptl_crystal_density_diffrn 2.
_cell_measurement_temperature 120.
_publ_section_title

;
Transition-mtal dependent cation disorder in the chiral cubic AB(HCO2)3
metal-organic frameworks (A = Li or Na, B = Mn or Co)
;
loop_
_citation_id
_citation_journal_full
_citation_year
_citation_journal_volume
_citation_page_first
_citation_page_last
_citation_journal_id_ASTM
primary 'Zeitschrift fuer Anorganische und Allgemeine Chemie' 2017 643 287 293
ZAACAB
loop_
_publ_author_name
'Aston, James C.'
'Saines, Paul J.'
_cell_length_a 8.96946(16)
_cell_length_b 8.96946(16)
_cell_length_c 8.96946(16)
_cell_angle_alpha 90
_cell_angle_beta 90
_cell_angle_gamma 90
_cell_volume 721.61
_cell_formula_units_Z 4
_symmetry_space_group_name_H-M 'P 21 3'
_symmetry_Int_Tables_number 198
_refine_ls_R_factor_all 0.0325
loop_
_symmetry_equiv_pos_site_id
_symmetry_equiv_pos_as_xyz
1 '-z+1/2, -x, y+1/2'
2 '-y+1/2, -z, x+1/2'
3 '-x+1/2, -y, z+1/2'
4 '-z, x+1/2, -y+1/2'
5 '-y, z+1/2, -x+1/2'
6 '-x, y+1/2, -z+1/2'
7 'z+1/2, -x+1/2, -y'
8 'y+1/2, -z+1/2, -x'
9 'x+1/2, -y+1/2, -z'
10 'z, x, y'
11 'y, z, x'
12 'x, y, z'
loop_
_atom_type_symbol
_atom_type_oxidation_number
Co2+ 2
Na1+ 1
Co2+ 2
Na1+ 1
O2- -2
C2+ 2
H1+ 1
loop_
_atom_site_label
_atom_site_type_symbol
_atom_site_symmetry_multiplicity
_atom_site_Wyckoff_symbol
_atom_site_fract_x
_atom_site_fract_y
_atom_site_fract_z
_atom_site_B_iso_or_equiv
_atom_site_occupancy
_atom_site_attached_hydrogens
Co1 Co2+ 4 a 0.15107(6) 0.15107(6) 0.15107(6) 0.0190(3) 0.566(3) 0
Na1 Na1+ 4 a 0.15107(6) 0.15107(6) 0.15107(6) 0.0190(3) 0.434(3) 0
Co2 Co2+ 4 a 0.83796(7) 0.33796(7) 0.16204(7) 0.0206(4) 0.434(3) 0
Na2 Na1+ 4 a 0.83796(7) 0.33796(7) 0.16204(7) 0.0206(4) 0.566(3) 0
O1 O2- 12 b 0.3748(3) 0.2081(3) 0.0810(3) 0.0353(6) 1 0
O2 O2- 12 b 0.6087(3) 0.2934(3) 0.0860(3) 0.0381(6) 1 0
C1 C2+ 12 b 0.4926(4) 0.2458(4) 0.1444(5) 0.0342(8) 1 0
H1 H1+ 12 b 0.4937 0.2371 0.2477 0.041 1 0
loop_
_atom_site_aniso_label
_atom_site_aniso_type_symbol
_atom_site_aniso_U_11
_atom_site_aniso_U_22
_atom_site_aniso_U_33
_atom_site_aniso_U_12
_atom_site_aniso_U_13
_atom_site_aniso_U_23
Co1 Co2+ 0.0190(3) 0.0190(3) 0.0190(3) 0.0054(3) 0.0054(3) 0.0054(3)
Na1 Na1+ 0.0190(3) 0.0190(3) 0.0190(3) 0.0054(3) 0.0054(3) 0.0054(3)
Co2 Co2+ 0.0206(4) 0.0206(4) 0.0206(4) 0.0026(3) -0.0026(3) -0.0026(3)
Na2 Na1+ 0.0206(4) 0.0206(4) 0.0206(4) 0.0026(3) -0.0026(3) -0.0026(3)
O1 O2- 0.0312(14) 0.0322(13) 0.0426(15) -0.0034(11) 0.0040(12) 0.0104(11)
O2 O2- 0.0341(15) 0.0358(15) 0.0444(16) -0.0046(11) 0.0004(12) -0.0086(12)
C1 C2+ 0.038(2) 0.0348(18) 0.0299(18) 0.0042(15) 0.0031(18) -0.0017(16)
#End of TTdata_243500-ICSD