
#(C) 2019 by FIZ Karlsruhe - Leibniz Institute for Information Infrastructure.  All rights reserved.
data_250496-ICSD
_database_code_ICSD 250496
_audit_creation_date 2014-08-01
_chemical_name_systematic 'Sodium formate dihydrate - HP phase'
_chemical_formula_structural 'Na (H C O2) (H2 O)2'
_chemical_formula_sum 'C1 H5 Na1 O4'
_exptl_crystal_density_diffrn 1.7
_cell_measurement_temperature 293.
_cell_measurement_pressure 1700000.
_publ_section_title

;
A new high pressure phase of sodium formate dihydrate; an experimental and
computational study
;
loop_
_citation_id
_citation_journal_full
_citation_year
_citation_journal_volume
_citation_page_first
_citation_page_last
_citation_journal_id_ASTM
primary 'Dalton Transactions' 2007 2007 2014 2019 DTARAF
loop_
_publ_author_name
'Walker, Martin'
'Morrison, Carole A.'
'Allan, David R.'
'Pulham, Colin R.'
'Marshall, William G.'
_cell_length_a 7.6852(9)
_cell_length_b 3.5113(3)
_cell_length_c 8.1103(17)
_cell_angle_alpha 90
_cell_angle_beta 111.780(14)
_cell_angle_gamma 90
_cell_volume 203.23
_cell_formula_units_Z 2
_symmetry_space_group_name_H-M 'P 1 21 1'
_symmetry_Int_Tables_number 4
_refine_ls_R_factor_all 0.0827
loop_
_symmetry_equiv_pos_site_id
_symmetry_equiv_pos_as_xyz
1 '-x, y+1/2, -z'
2 'x, y, z'
loop_
_atom_type_symbol
_atom_type_oxidation_number
Na1+ 1
C4+ 4
H1- -1
O2- -2
H1+ 1
loop_
_atom_site_label
_atom_site_type_symbol
_atom_site_symmetry_multiplicity
_atom_site_Wyckoff_symbol
_atom_site_fract_x
_atom_site_fract_y
_atom_site_fract_z
_atom_site_B_iso_or_equiv
_atom_site_occupancy
_atom_site_attached_hydrogens
Na1 Na1+ 2 a 0.1830(16) 0.296(3) 0.642(3) 0.027(2) 1. 0
C1 C4+ 2 a 0.081(3) 0.317(6) 0.211(5) 0.015(4) 1. 0
H1 H1- 2 a 0.028 0.5008 0.1074 0.05 1. 0
O1 O2- 2 a 0.014(3) 0.291(4) 0.330(4) 0.021(3) 1. 0
O2 O2- 2 a 0.241(3) 0.114(5) 0.246(6) 0.034(4) 1. 0
O3 O2- 2 a 0.336(3) 0.318(5) 0.949(5) 0.055(4) 1. 0
O4 O2- 2 a 0.376(3) 0.823(4) 0.605(5) 0.033(4) 1. 0
H2 H1+ 2 a 0.3366 0.9222 0.4946 0.04 1. 0
H3 H1+ 2 a 0.4986 0.7645 0.6571 0.04 1. 0
H4 H1+ 2 a 0.3015 0.2379 1.0372 0.0685 1. 0
H5 H1+ 2 a 0.4332 0.4809 0.9737 0.0685 1. 0
#End of TTdata_250496-ICSD