
#(C) 2019 by FIZ Karlsruhe - Leibniz Institute for Information Infrastructure.  All rights reserved.
data_252549-ICSD
_database_code_ICSD 252549
_audit_creation_date 2016-08-01
_chemical_name_systematic 'Sodium dimethoxymethylsilanoate methanol solvate *'
_chemical_formula_structural '((C H3 O)2 (C H3) Si O Na)10 (C H3 O H)4'
_chemical_formula_sum 'C34 H106 Na10 O34 Si10'
_exptl_crystal_density_diffrn 1.32
_cell_measurement_temperature 100.
_publ_section_title

;
Insights into the hydrolytic polymerization of trimethoxymethylsilane. Crystal
structure of (MeO)2MeSiONa
;
loop_
_citation_id
_citation_journal_full
_citation_year
_citation_journal_volume
_citation_page_first
_citation_page_last
_citation_journal_id_ASTM
primary 'Inorganic Chemistry' 2016 55 5744 5746 INOCAJ
loop_
_publ_author_name
'Richers, Casseday P.'
'Bertke, Jeffery'
'Rauchfuss, Thomas B.'
_cell_length_a 11.5098(12)
_cell_length_b 12.9494(14)
_cell_length_c 14.6016(16)
_cell_angle_alpha 85.639(6)
_cell_angle_beta 82.851(5)
_cell_angle_gamma 66.091(5)
_cell_volume 1973.29
_cell_formula_units_Z 1
_symmetry_space_group_name_H-M 'P -1'
_symmetry_Int_Tables_number 2
_refine_ls_R_factor_all 0.0349
loop_
_symmetry_equiv_pos_site_id
_symmetry_equiv_pos_as_xyz
1 '-x, -y, -z'
2 'x, y, z'
loop_
_atom_type_symbol
_atom_type_oxidation_number
Si2+ 2
O2- -2
C2- -2
H1+ 1
C2- -2
H1+ 1
Si2+ 2
O2- -2
C2- -2
H1+ 1
C2- -2
H1+ 1
Na1+ 1
O2- -2
C2- -2
H1+ 1
O2- -2
C2- -2
H1+ 1
O2- -2
H1+ 1
O2- -2
H1+ 1
C2- -2
H1+ 1
C2- -2
H1+ 1
C2- -2
H1+ 1
C2- -2
H1+ 1
C2- -2
H1+ 1
C2- -2
H1+ 1
C2- -2
H1+ 1
C2- -2
H1+ 1
C2- -2
H1+ 1
C2- -2
H1+ 1
C2- -2
H1+ 1
C2- -2
H1+ 1
C2- -2
H1+ 1
C2- -2
H1+ 1
loop_
_atom_site_label
_atom_site_type_symbol
_atom_site_symmetry_multiplicity
_atom_site_Wyckoff_symbol
_atom_site_fract_x
_atom_site_fract_y
_atom_site_fract_z
_atom_site_B_iso_or_equiv
_atom_site_occupancy
_atom_site_attached_hydrogens
Si1 Si2+ 2 i 0.77430(4) 0.52181(4) 0.28051(3) 0.01529(10) 1 0
Si2 Si2+ 2 i 0.37901(4) 0.40915(4) 0.11485(3) 0.01490(10) 1 0
Si3 Si2+ 2 i 0.78176(6) 0.01861(4) 0.11614(4) 0.03089(13) 1 0
Si4 Si2+ 2 i 0.55773(4) 0.16515(4) 0.43306(3) 0.01748(11) 1 0
Si5 Si2+ 2 i .76846(13) .38169(13) .57768(10) .0162(3) 0.552(4) 0
O1 O2- 2 i 0.7852(2) 0.3273(2) 0.68330(15) 0.0260(7) 0.552(4) 0
C1 C2- 2 i 0.7226(15) 0.2606(14) 0.7188(10) 0.043(3) 0.552(4) 0
H1 H1+ 2 i 0.7459 0.2339 0.7812 0.064 0.552(4) 0
H2 H1+ 2 i 0.7469 0.1957 0.6793 0.064 0.552(4) 0
H3 H1+ 2 i 0.6302 0.3046 0.7212 0.064 0.552(4) 0
C2 C2- 2 i 0.8591(11) 0.4770(11) 0.5679(10) 0.042(3) 0.552(4) 0
H4 H1+ 2 i 0.8489 0.5177 0.5081 0.063 0.552(4) 0
H5 H1+ 2 i 0.9499 0.431 0.5728 0.063 0.552(4) 0
H6 H1+ 2 i 0.8251 0.5313 0.6176 0.063 0.552(4) 0
Si6 Si2+ 2 i 0.74864(16) 0.35118(17) 0.59916(13) 0.0176(4) 0.448(4) 0
O2 O2- 2 i 0.8427(3) 0.4087(3) 0.6287(2) 0.0269(8) 0.448(4) 0
C3 C2- 2 i 0.8884(12) 0.4646(10) 0.5605(10) 0.029(2) 0.448(4) 0
H7 H1+ 2 i 0.9037 0.5244 0.5875 0.043 0.448(4) 0
H8 H1+ 2 i 0.8257 0.4981 0.5156 0.043 0.448(4) 0
H9 H1+ 2 i 0.9687 0.4114 0.5296 0.043 0.448(4) 0
C4 C2- 2 i 0.7244(18) 0.2689(14) 0.7079(10) 0.039(3) 0.448(4) 0
H10 H1+ 2 i 0.6665 0.2332 0.6981 0.059 0.448(4) 0
H11 H1+ 2 i 0.6873 0.3205 0.7595 0.059 0.448(4) 0
H12 H1+ 2 i 0.8068 0.2105 0.7222 0.059 0.448(4) 0
Na1 Na1+ 2 i 0.48790(6) 0.44413(5) 0.31627(4) 0.01467(13) 1 0
Na2 Na1+ 2 i 0.65218(6) 0.46593(6) 0.12295(4) 0.01767(14) 1 0
Na3 Na1+ 2 i 0.57689(6) 0.21746(6) 0.21512(5) 0.01982(15) 1 0
Na4 Na1+ 2 i 0.75280(6) 0.28998(6) 0.37184(5) 0.02148(15) 1 0
Na5 Na1+ 2 i 0.55885(6) 0.58772(5) 0.44757(5) 0.01842(14) 1 0
O3 O2- 2 i 0.67303(11) 0.46889(10) 0.30751(8) 0.0199(2) 1 0
O4 O2- 2 i 0.74111(13) 0.62548(11) 0.35142(9) 0.0262(3) 1 0
O5 O2- 2 i 0.75694(12) 0.57337(11) 0.17321(8) 0.0222(3) 1 0
O6 O2- 2 i 0.48991(11) 0.41413(10) 0.16505(8) 0.0165(2) 1 0
O7 O2- 2 i 0.36975(12) 0.28789(11) 0.15408(8) 0.0228(3) 1 0
O8 O2- 2 i 0.40899(11) 0.39950(10) 0.00062(8) 0.0195(2) 1 0
O9 O2- 2 i 0.79644(12) 0.12275(11) 0.15539(9) 0.0266(3) 1 0
O10 O2- 2 i 0.63126(16) 0.03875(13) 0.14736(13) 0.0459(4) 1 0
O11 O2- 2 i 0.8506(9) -0.1087(4) 0.1561(5) 0.038(2) 0.54(4) 0
C5 C2- 2 i 0.9535(10) -0.1367(7) 0.1951(6) 0.041(2) 0.54(4) 0
H13 H1+ 2 i 0.9994 -0.2191 0.1957 0.062 0.54(4) 0
H14 H1+ 2 i 0.932 -0.1104 0.2586 0.062 0.54(4) 0
H15 H1+ 2 i 1.0078 -0.1019 0.1607 0.062 0.54(4) 0
O12 O2- 2 i 0.883(2) -0.1040(9) 0.1504(10) 0.088(3) 0.46(4) 0
C6 C2- 2 i 0.9760(17) -0.1414(13) 0.2010(13) 0.083(4) 0.46(4) 0
H16 H1+ 2 i 0.9801 -0.2124 0.2321 0.125 0.46(4) 0
H17 H1+ 2 i 0.9625 -0.0856 0.2473 0.125 0.46(4) 0
H18 H1+ 2 i 1.0563 -0.1547 0.1622 0.125 0.46(4) 0
O13 O2- 2 i 0.57176(11) 0.26137(10) 0.36551(8) 0.0185(2) 1 0
O14 O2- 2 i 0.52083(13) 0.21440(10) 0.53899(8) 0.0241(3) 1 0
O15 O2- 2 i 0.44460(14) 0.12736(12) 0.40880(11) 0.0334(3) 1 0
O16 O2- 2 i 0.62393(11) 0.44493(10) 0.55942(8) 0.0192(2) 1 0
O17 O2- 2 i 0.83580(12) 0.26873(12) 0.51031(9) 0.0300(3) 1 0
O18 O2- 2 i 0.91213(14) 0.14935(13) 0.28932(11) 0.0346(3) 1 0
H19 H1+ 2 i 0.878(3) 0.136(2) 0.2480(15) 0.052 1 0
O19 O2- 2 i 0.81755(13) 0.30348(12) 0.07539(11) 0.0308(3) 1 0
H20 H1+ 2 i 0.814(3) 0.244(2) 0.0961(19) 0.046 1 0
C7 C2- 2 i 0.8026(2) 0.70222(19) 0.34220(16) 0.0378(5) 1 0
H21 H1+ 2 i 0.7833 0.7438 0.3993 0.057 1 0
H22 H1+ 2 i 0.7715 0.7556 0.2906 0.057 1 0
H23 H1+ 2 i 0.8951 0.66 0.3303 0.057 1 0
C8 C2- 2 i 0.84120(19) 0.61203(18) 0.11599(13) 0.0286(4) 1 0
H24 H1+ 2 i 0.8256 0.6137 0.0513 0.043 1 0
H25 H1+ 2 i 0.9298 0.5608 0.1236 0.043 1 0
H26 H1+ 2 i 0.8264 0.6883 0.1335 0.043 1 0
C9 C2- 2 i 0.94423(17) 0.42199(17) 0.28521(13) 0.0265(4) 1 0
H27 H1+ 2 i 0.9999 0.4622 0.2668 0.04 1 0
H28 H1+ 2 i 0.965 0.3602 0.243 0.04 1 0
H29 H1+ 2 i 0.9571 0.391 0.3483 0.04 1 0
C10 C2- 2 i 0.2867(2) 0.24440(19) 0.12371(15) 0.0338(5) 1 0
H30 H1+ 2 i 0.2878 0.1795 0.1633 0.051 1 0
H31 H1+ 2 i 0.3152 0.2205 0.0598 0.051 1 0
H32 H1+ 2 i 0.1997 0.3032 0.1271 0.051 1 0
C11 C2- 2 i 0.51910(19) 0.30667(18) -0.03742(14) 0.0320(4) 1 0
H33 H1+ 2 i 0.5109 0.2991 -0.1023 0.048 1 0
H34 H1+ 2 i 0.5258 0.2369 -0.0028 0.048 1 0
H35 H1+ 2 i 0.5959 0.3204 -0.0332 0.048 1 0
C12 C2- 2 i 0.22014(16) 0.52702(16) 0.13045(13) 0.0245(4) 1 0
H36 H1+ 2 i 0.1579 0.5082 0.1031 0.037 1 0
H37 H1+ 2 i 0.2245 0.5957 0.1001 0.037 1 0
H38 H1+ 2 i 0.1937 0.5398 0.1965 0.037 1 0
C13 C2- 2 i 0.5785(3) -0.0412(2) 0.1370(2) 0.0521(7) 1 0
H39 H1+ 2 i 0.4926 -0.016 0.17 0.078 1 0
H40 H1+ 2 i 0.6329 -0.1149 0.1624 0.078 1 0
H41 H1+ 2 i 0.5735 -0.0478 0.0713 0.078 1 0
C14 C2- 2 i 0.8097(3) 0.0104(3) -0.0099(3) 0.0744(11) 1 0
H42 H1+ 2 i 0.7803 -0.0446 -0.0301 0.112 1 0
H43 H1+ 2 i 0.9012 -0.0133 -0.0293 0.112 1 0
H44 H1+ 2 i 0.7624 0.0848 -0.0378 0.112 1 0
C15 C2- 2 i 0.5197(2) 0.14145(17) 0.61762(13) 0.0330(5) 1 0
H45 H1+ 2 i 0.4772 0.1871 0.672 0.05 1 0
H46 H1+ 2 i 0.6077 0.0919 0.6285 0.05 1 0
H47 H1+ 2 i 0.4735 0.0955 0.6061 0.05 1 0
C16 C2- 2 i 0.3227(2) 0.2060(2) 0.39104(17) 0.0424(6) 1 0
H48 H1+ 2 i 0.27 0.166 0.3794 0.064 1 0
H49 H1+ 2 i 0.3301 0.2532 0.3367 0.064 1 0
H50 H1+ 2 i 0.2828 0.2539 0.4446 0.064 1 0
C17 C2- 2 i 0.7015(2) 0.02962(16) 0.43236(15) 0.0337(5) 1 0
H51 H1+ 2 i 0.6823 -0.0257 0.474 0.051 1 0
H52 H1+ 2 i 0.7723 0.0423 0.4531 0.051 1 0
H53 H1+ 2 i 0.7256 0.0009 0.3696 0.051 1 0
C18 C2- 2 i 0.9597(2) 0.1841(2) 0.52326(17) 0.0462(6) 1 0
H54 H1+ 2 i 0.9742 0.1168 0.4893 0.069 1 0
H55 H1+ 2 i 0.9653 0.1642 0.5891 0.069 1 0
H56 H1+ 2 i 1.0247 0.2132 0.5002 0.069 1 0
C19 C2- 2 i 1.0453(2) 0.09108(19) 0.27780(16) 0.0364(5) 1 0
H57 H1+ 2 i 1.0742 0.0787 0.212 0.055 1 0
H58 H1+ 2 i 1.0696 0.018 0.3112 0.055 1 0
H59 H1+ 2 i 1.0853 0.1358 0.3021 0.055 1 0
C20 C2- 2 i 0.94788(18) 0.28225(17) 0.05191(14) 0.0301(4) 1 0
H60 H1+ 2 i 0.9794 0.2387 -0.0046 0.045 1 0
H61 H1+ 2 i 0.9971 0.2392 0.1024 0.045 1 0
H62 H1+ 2 i 0.9575 0.3542 0.0417 0.045 1 0
loop_
_atom_site_aniso_label
_atom_site_aniso_type_symbol
_atom_site_aniso_U_11
_atom_site_aniso_U_22
_atom_site_aniso_U_33
_atom_site_aniso_U_12
_atom_site_aniso_U_13
_atom_site_aniso_U_23
Si1 Si2+ 0.0152(2) 0.0197(2) 0.0137(2) -0.00984(17) -0.00145(16) -0.00041(16)
Si2 Si2+ 0.0141(2) 0.0201(2) 0.0122(2) -0.00833(17) -0.00249(16) 0.00057(16)
Si3 Si2+ 0.0347(3) 0.0185(3) 0.0358(3) -0.0089(2) 0.0071(2) -0.0063(2)
Si4 Si2+ 0.0228(2) 0.0139(2) 0.0169(2) -0.00900(18) -0.00109(17) 0.00073(16)
Si5 Si2+ 0.0137(5) 0.0201(6) 0.0132(6) -0.0046(4) -0.0023(4) -0.0028(4)
O1 O2- 0.0274(12) 0.0316(13) 0.0155(11) -0.0081(10) -0.0034(9) 0.0010(9)
C1 C2- 0.034(4) 0.050(5) 0.040(4) -0.016(4) -0.001(3) 0.013(3)
C2 C2- 0.018(4) 0.071(5) 0.041(4) -0.021(4) -0.008(3) 0.002(3)
Si6 Si2+ 0.0137(6) 0.0206(8) 0.0160(8) -0.0039(5) -0.0015(5) -0.0039(6)
O2 O2- 0.0229(14) 0.0425(17) 0.0205(15) -0.0177(13) -0.0045(11) -0.0013(12)
C3 C2- 0.025(6) 0.032(3) 0.029(3) -0.011(3) -0.005(3) 0.002(3)
C4 C2- 0.039(6) 0.031(4) 0.040(5) -0.004(4) -0.016(4) -0.001(4)
Na1 Na1+ 0.0157(3) 0.0159(3) 0.0130(3) -0.0071(2) -0.0009(2) -0.0009(2)
Na2 Na1+ 0.0157(3) 0.0213(3) 0.0181(3) -0.0097(3) -0.0024(2) 0.0008(3)
Na3 Na1+ 0.0221(3) 0.0182(3) 0.0189(3) -0.0068(3) -0.0050(3) -0.0018(3)
Na4 Na1+ 0.0189(3) 0.0203(3) 0.0264(4) -0.0080(3) -0.0077(3) 0.0024(3)
Na5 Na1+ 0.0192(3) 0.0180(3) 0.0192(3) -0.0081(3) -0.0023(3) -0.0031(2)
O3 O2- 0.0170(6) 0.0218(6) 0.0231(6) -0.0106(5) -0.0014(5) 0.0011(5)
O4 O2- 0.0343(7) 0.0259(7) 0.0235(7) -0.0175(6) 0.0014(5) -0.0059(5)
O5 O2- 0.0231(6) 0.0340(7) 0.0163(6) -0.0187(6) -0.0047(5) 0.0053(5)
O6 O2- 0.0162(5) 0.0211(6) 0.0143(5) -0.0094(5) -0.0032(4) 0.0008(4)
O7 O2- 0.0268(6) 0.0277(7) 0.0221(6) -0.0187(5) -0.0091(5) 0.0062(5)
O8 O2- 0.0191(6) 0.0242(6) 0.0132(5) -0.0064(5) -0.0019(4) -0.0014(5)
O9 O2- 0.0266(7) 0.0223(6) 0.0296(7) -0.0084(5) -0.0032(5) -0.0006(5)
O10 O2- 0.0454(9) 0.0335(8) 0.0639(11) -0.0244(7) 0.0202(8) -0.0245(8)
O11 O2- 0.045(3) 0.022(2) 0.056(3) -0.0175(15) -0.0252(19) 0.0091(15)
C5 C2- 0.065(5) 0.038(3) 0.045(3) -0.042(4) -0.022(3) 0.009(2)
O12 O2- 0.085(6) 0.053(4) 0.120(5) -0.019(4) -0.015(4) -0.008(3)
C6 C2- 0.057(5) 0.066(6) 0.106(7) 0.001(5) -0.039(5) 0.017(5)
O13 O2- 0.0210(6) 0.0178(6) 0.0182(6) -0.0096(5) -0.0033(5) 0.0034(4)
O14 O2- 0.0382(7) 0.0178(6) 0.0168(6) -0.0127(5) 0.0006(5) 0.0007(5)
O15 O2- 0.0405(8) 0.0298(7) 0.0408(8) -0.0239(7) -0.0133(6) 0.0072(6)
O16 O2- 0.0144(5) 0.0209(6) 0.0206(6) -0.0046(5) -0.0025(4) -0.0037(5)
O17 O2- 0.0204(6) 0.0327(7) 0.0245(7) 0.0049(5) -0.0055(5) -0.0125(6)
O18 O2- 0.0269(7) 0.0396(8) 0.0364(8) -0.0099(6) -0.0037(6) -0.0144(6)
O19 O2- 0.0219(7) 0.0223(7) 0.0424(8) -0.0057(5) 0.0043(6) 0.0032(6)
C7 C2- 0.0538(13) 0.0371(11) 0.0360(11) -0.0310(11) -0.0046(10) -0.0061(9)
C8 C2- 0.0325(10) 0.0420(11) 0.0196(9) -0.0250(9) -0.0007(7) 0.0048(8)
C9 C2- 0.0200(8) 0.0326(10) 0.0273(9) -0.0105(8) -0.0049(7) 0.0004(8)
C10 C2- 0.0381(11) 0.0380(11) 0.0396(12) -0.0280(10) -0.0131(9) 0.0040(9)
C11 C2- 0.0287(10) 0.0349(11) 0.0218(9) -0.0023(8) 0.0025(7) -0.0058(8)
C12 C2- 0.0167(8) 0.0327(10) 0.0220(9) -0.0068(7) -0.0026(7) -0.0042(7)
C13 C2- 0.0558(15) 0.0377(13) 0.0731(19) -0.0299(12) 0.0009(13) -0.0108(12)
C14 C2- 0.0548(17) 0.0635(19) 0.102(3) -0.0189(15) 0.0238(17) -0.0644(19)
C15 C2- 0.0559(13) 0.0254(10) 0.0199(9) -0.0200(9) 0.0002(9) 0.0020(7)
C16 C2- 0.0368(12) 0.0604(15) 0.0403(12) -0.0313(11) -0.0117(10) 0.0182(11)
C17 C2- 0.0379(11) 0.0192(9) 0.0341(11) -0.0045(8) 0.0041(9) 0.0039(8)
C18 C2- 0.0278(11) 0.0471(13) 0.0385(12) 0.0147(10) -0.0074(9) -0.0170(10)
C19 C2- 0.0293(10) 0.0385(11) 0.0361(11) -0.0069(9) -0.0050(9) -0.0052(9)
C20 C2- 0.0229(9) 0.0308(10) 0.0322(10) -0.0076(8) 0.0008(8) 0.0006(8)
#End of TTdata_252549-ICSD