
#(C) 2019 by FIZ Karlsruhe - Leibniz Institute for Information Infrastructure.  All rights reserved.
data_254162-ICSD
_database_code_ICSD 254162
_audit_creation_date 2018-02-01
_chemical_name_systematic
'Bis(trimethylammonium) sodium hexaazido-chromate(III)'
_chemical_formula_structural '((C H3)3 (N H))2 (Cr Na (N3)6)'
_chemical_formula_sum 'C6 H20 Cr1 N20 Na1'
_exptl_crystal_density_diffrn 1.51
_cell_measurement_temperature 296.
_publ_section_title

;
Matching of host-guest Symmetry/Orientation and molecular dynamics in two
double perovskite-like azido coordination polymers
;
loop_
_citation_id
_citation_journal_full
_citation_year
_citation_journal_volume
_citation_page_first
_citation_page_last
_citation_journal_id_ASTM
primary 'Inorganic Chemistry' 2017 56 9946 9953 INOCAJ
loop_
_publ_author_name
'Zeng, Ying'
'Huang, Rui-Kang'
'Du, Zi-Yi'
'He, Chun-Ting'
'Zhang, Wei-Xiong'
'Chen, Xiao-Ming'
_cell_length_a 9.6318(2)
_cell_length_b 9.6318(2)
_cell_length_c 36.6294(17)
_cell_angle_alpha 90
_cell_angle_beta 90
_cell_angle_gamma 120
_cell_volume 2942.89
_cell_formula_units_Z 6
_symmetry_space_group_name_H-M 'R -3 c H'
_symmetry_Int_Tables_number 167
_refine_ls_R_factor_all 0.0377
loop_
_symmetry_equiv_pos_site_id
_symmetry_equiv_pos_as_xyz
1 'x-y, -y, -z+1/2'
2 '-x, -x+y, -z+1/2'
3 'y, x, -z+1/2'
4 'x-y, x, -z'
5 'y, -x+y, -z'
6 '-x, -y, -z'
7 '-x+y, y, z+1/2'
8 'x, x-y, z+1/2'
9 '-y, -x, z+1/2'
10 '-x+y, -x, z'
11 '-y, x-y, z'
12 'x, y, z'
13 'x-y+2/3, -y+1/3, -z+5/6'
14 '-x+2/3, -x+y+1/3, -z+5/6'
15 'y+2/3, x+1/3, -z+5/6'
16 'x-y+2/3, x+1/3, -z+1/3'
17 'y+2/3, -x+y+1/3, -z+1/3'
18 '-x+2/3, -y+1/3, -z+1/3'
19 '-x+y+2/3, y+1/3, z+5/6'
20 'x+2/3, x-y+1/3, z+5/6'
21 '-y+2/3, -x+1/3, z+5/6'
22 '-x+y+2/3, -x+1/3, z+1/3'
23 '-y+2/3, x-y+1/3, z+1/3'
24 'x+2/3, y+1/3, z+1/3'
25 'x-y+1/3, -y+2/3, -z+1/6'
26 '-x+1/3, -x+y+2/3, -z+1/6'
27 'y+1/3, x+2/3, -z+1/6'
28 'x-y+1/3, x+2/3, -z+2/3'
29 'y+1/3, -x+y+2/3, -z+2/3'
30 '-x+1/3, -y+2/3, -z+2/3'
31 '-x+y+1/3, y+2/3, z+1/6'
32 'x+1/3, x-y+2/3, z+1/6'
33 '-y+1/3, -x+2/3, z+1/6'
34 '-x+y+1/3, -x+2/3, z+2/3'
35 '-y+1/3, x-y+2/3, z+2/3'
36 'x+1/3, y+2/3, z+2/3'
loop_
_atom_type_symbol
_atom_type_oxidation_number
Cr3+ 3
Na1+ 1
N0+ -0.333
C2- -2
H1+ 1
N3- -3
H1+ 1
N3- -3
H1+ 1
loop_
_atom_site_label
_atom_site_type_symbol
_atom_site_symmetry_multiplicity
_atom_site_Wyckoff_symbol
_atom_site_fract_x
_atom_site_fract_y
_atom_site_fract_z
_atom_site_B_iso_or_equiv
_atom_site_occupancy
_atom_site_attached_hydrogens
Cr1 Cr3+ 6 b 0. 0. 0.5 0.0234(3) 1 0
Na1 Na1+ 6 a 0.3333 0.6667 0.4167 0.0368(6) 1 0
N1 N0+ 36 f 0.1097(3) 0.3035(3) 0.46210(6) 0.0425(6) 1 0
N2 N0+ 36 f -0.0026(3) 0.1734(3) 0.46706(7) 0.0529(7) 1 0
N3 N0+ 36 f 0.2150(3) 0.4300(3) 0.45663(7) 0.0665(8) 1 0
C1 C2- 36 f 0.1204(4) 0.1621(4) 0.37645(9) 0.0671(10) 1 0
H1 H1+ 36 f 0.2247 0.1876 0.385 0.101 0.550(13) 0
H2 H1+ 36 f 0.1202 0.1644 0.3502 0.101 0.550(13) 0
H3 H1+ 36 f 0.0942 0.2394 0.3858 0.101 0.550(13) 0
H4 H1+ 36 f 0.2248 0.1885 0.3678 0.101 0.450(13) 0
H5 H1+ 36 f 0.0938 0.2396 0.3675 0.101 0.450(13) 0
H6 H1+ 36 f 0.1203 0.1629 0.4027 0.101 0.450(13) 0
N4 N3- 12 c 0. 0. 0.3893(3) 0.044(2) 0.550(13) 0
H7 H1+ 12 c 0. 0. 0.4161 0.053 0.550(13) 0
N5 N3- 12 c 0. 0. 0.3631(4) 0.043(3) 0.450(13) 0
H8 H1+ 12 c 0. 0. 0.3364 0.052 0.450(13) 0
loop_
_atom_site_aniso_label
_atom_site_aniso_type_symbol
_atom_site_aniso_U_11
_atom_site_aniso_U_22
_atom_site_aniso_U_33
_atom_site_aniso_U_12
_atom_site_aniso_U_13
_atom_site_aniso_U_23
Cr1 Cr3+ 0.0213(3) 0.0213(3) 0.0276(5) 0.01065(17) 0. 0.
Na1 Na1+ 0.0371(8) 0.0371(8) 0.0363(13) 0.0185(4) 0. 0.
N1 N0+ 0.0506(14) 0.0437(15) 0.0406(15) 0.0290(12) 0.0037(11) 0.0051(12)
N2 N0+ 0.0459(15) 0.0412(14) 0.0704(17) 0.0209(12) -0.0037(14) 0.0136(13)
N3 N0+ 0.0693(19) 0.0431(15) 0.0690(19) 0.0146(16) 0.0130(17) 0.0172(13)
C1 C2- 0.065(2) 0.0512(19) 0.073(2) 0.0197(17) 0.0052(18) -0.0065(18)
N4 N3- 0.049(3) 0.049(3) 0.035(6) 0.0245(14) 0. 0.
N5 N3- 0.047(3) 0.047(3) 0.037(7) 0.0234(17) 0. 0.
#End of TTdata_254162-ICSD