
#(C) 2019 by FIZ Karlsruhe - Leibniz Institute for Information Infrastructure.  All rights reserved.
data_254164-ICSD
_database_code_ICSD 254164
_audit_creation_date 2018-02-01
_chemical_name_systematic
'Bis(trimethylammonium) sodium hexaazido-chromate(III)'
_chemical_formula_structural '((C H3)3 (N H))2 (Cr Na (N3)6)'
_chemical_formula_sum 'C6 H20 Cr1 N20 Na1'
_exptl_crystal_density_diffrn 1.56
_cell_measurement_temperature 123.
_publ_section_title

;
Matching of host-guest Symmetry/Orientation and molecular dynamics in two
double perovskite-like azido coordination polymers
;
loop_
_citation_id
_citation_journal_full
_citation_year
_citation_journal_volume
_citation_page_first
_citation_page_last
_citation_journal_id_ASTM
primary 'Inorganic Chemistry' 2017 56 9946 9953 INOCAJ
loop_
_publ_author_name
'Zeng, Ying'
'Huang, Rui-Kang'
'Du, Zi-Yi'
'He, Chun-Ting'
'Zhang, Wei-Xiong'
'Chen, Xiao-Ming'
_cell_length_a 9.5642(4)
_cell_length_b 9.5642(4)
_cell_length_c 36.058(2)
_cell_angle_alpha 90
_cell_angle_beta 90
_cell_angle_gamma 120
_cell_volume 2856.46
_cell_formula_units_Z 6
_symmetry_space_group_name_H-M 'R -3 c H'
_symmetry_Int_Tables_number 167
_refine_ls_R_factor_all 0.0279
loop_
_symmetry_equiv_pos_site_id
_symmetry_equiv_pos_as_xyz
1 'x-y, -y, -z+1/2'
2 '-x, -x+y, -z+1/2'
3 'y, x, -z+1/2'
4 'x-y, x, -z'
5 'y, -x+y, -z'
6 '-x, -y, -z'
7 '-x+y, y, z+1/2'
8 'x, x-y, z+1/2'
9 '-y, -x, z+1/2'
10 '-x+y, -x, z'
11 '-y, x-y, z'
12 'x, y, z'
13 'x-y+2/3, -y+1/3, -z+5/6'
14 '-x+2/3, -x+y+1/3, -z+5/6'
15 'y+2/3, x+1/3, -z+5/6'
16 'x-y+2/3, x+1/3, -z+1/3'
17 'y+2/3, -x+y+1/3, -z+1/3'
18 '-x+2/3, -y+1/3, -z+1/3'
19 '-x+y+2/3, y+1/3, z+5/6'
20 'x+2/3, x-y+1/3, z+5/6'
21 '-y+2/3, -x+1/3, z+5/6'
22 '-x+y+2/3, -x+1/3, z+1/3'
23 '-y+2/3, x-y+1/3, z+1/3'
24 'x+2/3, y+1/3, z+1/3'
25 'x-y+1/3, -y+2/3, -z+1/6'
26 '-x+1/3, -x+y+2/3, -z+1/6'
27 'y+1/3, x+2/3, -z+1/6'
28 'x-y+1/3, x+2/3, -z+2/3'
29 'y+1/3, -x+y+2/3, -z+2/3'
30 '-x+1/3, -y+2/3, -z+2/3'
31 '-x+y+1/3, y+2/3, z+1/6'
32 'x+1/3, x-y+2/3, z+1/6'
33 '-y+1/3, -x+2/3, z+1/6'
34 '-x+y+1/3, -x+2/3, z+2/3'
35 '-y+1/3, x-y+2/3, z+2/3'
36 'x+1/3, y+2/3, z+2/3'
loop_
_atom_type_symbol
_atom_type_oxidation_number
Cr3+ 3
Na1+ 1
N0+ -0.333
C2- -2
H1+ 1
N3- -3
H1+ 1
N3- -3
H1+ 1
loop_
_atom_site_label
_atom_site_type_symbol
_atom_site_symmetry_multiplicity
_atom_site_Wyckoff_symbol
_atom_site_fract_x
_atom_site_fract_y
_atom_site_fract_z
_atom_site_B_iso_or_equiv
_atom_site_occupancy
_atom_site_attached_hydrogens
Cr1 Cr3+ 6 b 0.3333 0.6667 0.6667 0.0079(2) 1 0
Na1 Na1+ 6 a 0. 0. 0.75 0.0096(3) 1 0
N1 N0+ 36 f 0.15684(13) 0.49642(13) 0.69965(3) 0.0167(3) 1 0
N2 N0+ 36 f 0.13960(13) 0.36499(14) 0.70431(3) 0.0125(3) 1 0
N3 N0+ 36 f 0.11751(14) 0.23685(16) 0.70981(3) 0.0206(3) 1 0
C1 C2- 36 f -0.04491(19) 0.12031(18) 0.62331(4) 0.0198(3) 1 0
H1 H1+ 36 f -0.1532 0.0899 0.6144 0.03 0.620(6) 0
H2 H1+ 36 f -0.0438 0.1222 0.6505 0.03 0.620(6) 0
H3 H1+ 36 f 0.0329 0.2277 0.6138 0.03 0.620(6) 0
H4 H1+ 36 f -0.1525 0.0917 0.6324 0.03 0.380(6) 0
H5 H1+ 36 f 0.0341 0.2285 0.6321 0.03 0.380(6) 0
H6 H1+ 36 f -0.0455 0.1192 0.5961 0.03 0.380(6) 0
N4 N3- 12 c 0. 0. 0.60989(9) 0.0136(9) 0.620(6) 0
H7 H1+ 12 c 0. 0. 0.5822 0.016 0.620(6) 0
N5 N3- 12 c 0. 0. 0.63746(15) 0.0096(15) 0.380(6) 0
H8 H1+ 12 c 0. 0. 0.6652 0.012 0.380(6) 0
loop_
_atom_site_aniso_label
_atom_site_aniso_type_symbol
_atom_site_aniso_U_11
_atom_site_aniso_U_22
_atom_site_aniso_U_33
_atom_site_aniso_U_12
_atom_site_aniso_U_13
_atom_site_aniso_U_23
Cr1 Cr3+ 0.0043(2) 0.0043(2) 0.0152(3) 0.00214(11) 0. 0.
Na1 Na1+ 0.0086(4) 0.0086(4) 0.0117(6) 0.0043(2) 0. 0.
N1 N0+ 0.0111(6) 0.0108(6) 0.0288(6) 0.0059(5) 0.0055(4) 0.0040(4)
N2 N0+ 0.0074(6) 0.0136(6) 0.0125(5) 0.0023(5) 0.0001(4) 0.0010(4)
N3 N0+ 0.0221(7) 0.0124(7) 0.0245(6) 0.0065(5) 0.0025(5) 0.0075(5)
C1 C2- 0.0207(7) 0.0170(7) 0.0268(7) 0.0132(6) -0.0035(6) -0.0021(6)
N4 N3- 0.0144(12) 0.0144(12) 0.0120(18) 0.0072(6) 0. 0.
N5 N3- 0.0080(18) 0.0080(18) 0.013(3) 0.0040(9) 0. 0.
#End of TTdata_254164-ICSD