
#(C) 2019 by FIZ Karlsruhe - Leibniz Institute for Information Infrastructure.  All rights reserved.
data_258763-ICSD
_database_code_ICSD 258763
_audit_creation_date 2018-02-01
_chemical_name_systematic 'Disodium diiron ethanedioate hydrate'
_chemical_formula_structural 'Na2 Fe2 (C2 O4)3 (H2 O)2'
_chemical_formula_sum 'C6 H4 Fe2 Na2 O14'
_chemical_name_structure_type Na2Mg2(C2O4)3(H2O)2
_exptl_crystal_density_diffrn 2.37
_publ_section_title

;
Reinvestigation of Na2Fe2(C2O4)3.2H2O. An iron-based positive electrode for
secondary batteries
;
loop_
_citation_id
_citation_journal_full
_citation_year
_citation_journal_volume
_citation_page_first
_citation_page_last
_citation_journal_id_ASTM
primary 'Chemistry of Materials' 2017 29 9095 9101 CMATEX
loop_
_publ_author_name
'Yao, Wenjiao'
'Sougrati, Moulay-Tahar'
'Hoang, Khang'
'Hui, Jianing'
'Lightfoot, Philip'
'Armstrong, A. Robert'
_cell_length_a 5.8873(11)
_cell_length_b 15.715(3)
_cell_length_c 7.022(1)
_cell_angle_alpha 90
_cell_angle_beta 100.07(3)
_cell_angle_gamma 90
_cell_volume 639.66
_cell_formula_units_Z 2
_symmetry_space_group_name_H-M 'P 1 21/c 1'
_symmetry_Int_Tables_number 14
_refine_ls_R_factor_all 0.0298
loop_
_symmetry_equiv_pos_site_id
_symmetry_equiv_pos_as_xyz
1 'x, -y+1/2, z+1/2'
2 '-x, -y, -z'
3 '-x, y+1/2, -z+1/2'
4 'x, y, z'
loop_
_atom_type_symbol
_atom_type_oxidation_number
Na1+ 1
Fe2+ 2
C3+ 3
O2- -2
H1+ 1
loop_
_atom_site_label
_atom_site_type_symbol
_atom_site_symmetry_multiplicity
_atom_site_Wyckoff_symbol
_atom_site_fract_x
_atom_site_fract_y
_atom_site_fract_z
_atom_site_B_iso_or_equiv
_atom_site_occupancy
_atom_site_attached_hydrogens
Na1 Na1+ 4 e 0.9642(2) 0.1813(1) 0.8079(1) 0.0168(2) 1. 0
Fe1 Fe2+ 4 e 0.766(2) 0.1021(0) 0.2146(0) 0.0126(1) 1. 0
C1 C3+ 4 e 1.4406(4) 0.2648(2) 0.7509(3) 0.0148(5) 1. 0
C2 C3+ 4 e 1.0043(4) 0.0362(1) 0.5745(4) 0.0151(5) 1. 0
C3 C3+ 4 e 1.2919(4) 0.1534(2) 0.2123(3) 0.0137(5) 1. 0
O1 O2- 4 e 0.9021(3) 0.1038(1) 0.5177(2) 0.0181(4) 1. 0
O2 O2- 4 e 0.6822(3) 0.0835(1) -0.0904(3) 0.0160(4) 1. 0
O3 O2- 4 e 0.3997(3) 0.0843(1) 0.2239(3) 0.0170(4) 1. 0
O4 O2- 4 e 0.8887(3) -0.0223(1) 0.2578(2) 0.0177(4) 1. 0
O5 O2- 4 e 1.0781(2) 0.1640(1) 0.1726(3) 0.0178(4) 1. 0
O6 O2- 4 e 1.3487(3) 0.1981(1) 0.7906(3) 0.0210(4) 1. 0
O7 O2- 4 e 0.6506(3) 0.2261(1) 0.2380(2) 0.0165(4) 1. 0
H1 H1+ 4 e 0.673(5) 0.034(2) -0.137(5) 0.024(8) 1. 0
H2 H1+ 4 e 0.576(7) 0.112(2) -0.132(6) 0.057(13) 1. 0
#End of TTdata_258763-ICSD