
#(C) 2019 by FIZ Karlsruhe - Leibniz Institute for Information Infrastructure.  All rights reserved.
data_26969-ICSD
_database_code_ICSD 26969
_audit_creation_date 1980-01-01
_audit_update_record 2004-10-01
_chemical_name_systematic 'Disodium calcium dicarbonate pentahydrate'
_chemical_formula_structural 'Na2 Ca (C O3)2 (H2 O)5'
_chemical_formula_sum 'C2 H10 Ca1 Na2 O11'
_chemical_name_structure_type Na2Ca(CO3)2(H2O)5
_chemical_name_mineral Gaylussite
_exptl_crystal_density_diffrn 1.99
_publ_section_title 'The crystal structure of gaylussite.'
loop_
_citation_id
_citation_journal_full
_citation_year
_citation_journal_volume
_citation_page_first
_citation_page_last
_citation_journal_id_ASTM
primary

;
Atti della Accademia Nazionale dei Lincei, Classe di Scienze Fisiche,
Matematiche e Naturali, Rendiconti
; 1968 44 680 694 AANLAW
loop_
_publ_author_name
'Menchetti, S.'
'Carobbi, S.G.'
_cell_length_a 14.349(5)
_cell_length_b 7.780(4)
_cell_length_c 11.207(2)
_cell_angle_alpha 90.
_cell_angle_beta 127.85(3)
_cell_angle_gamma 90.
_cell_volume 987.89
_cell_formula_units_Z 4
_symmetry_space_group_name_H-M 'C 1 2/c 1'
_symmetry_Int_Tables_number 15
_refine_ls_R_factor_all 0.053
loop_
_symmetry_equiv_pos_site_id
_symmetry_equiv_pos_as_xyz
1 'x, -y, z+1/2'
2 '-x, -y, -z'
3 '-x, y, -z+1/2'
4 'x, y, z'
5 'x+1/2, -y+1/2, z+1/2'
6 '-x+1/2, -y+1/2, -z'
7 '-x+1/2, y+1/2, -z+1/2'
8 'x+1/2, y+1/2, z'
loop_
_atom_type_symbol
_atom_type_oxidation_number
Na1+ 1
Ca2+ 2
O2- -2
C4+ 4
H1+ 1
loop_
_atom_site_label
_atom_site_type_symbol
_atom_site_symmetry_multiplicity
_atom_site_Wyckoff_symbol
_atom_site_fract_x
_atom_site_fract_y
_atom_site_fract_z
_atom_site_B_iso_or_equiv
_atom_site_occupancy
_atom_site_attached_hydrogens
Na1 Na1+ 8 f 0.4122(2) 0.8182(5) 0.5109(2) . 1. 0
Ca1 Ca2+ 4 e 0.5 0.8065(3) 0.25 . 1. 0
O1 O2- 8 f 0.3345(3) 0.9902(8) 0.0894(3) . 1. 0
O2 O2- 8 f 0.3962(3) 0.9960(8) 0.3245(4) . 1. 0
O3 O2- 8 f 0.2149(3) 0.0909(8) 0.1367(4) . 1. 0
O4 O2- 8 f 0.3526(3) 0.5965(8) 0.1893(4) . 1. 0
O5 O2- 8 f 0.5707(3) 0.7073(8) 0.5034(4) . 1. 0
O6 O2- 4 e 0.5 0.3191(11) 0.25 . 1. 0
C1 C4+ 8 f 0.3153(4) 0.0266(11) 0.1844(5) . 1. 0
H1 H1+ 8 f 0.1728 0.0944 0.2452 . 1. 0
H2 H1+ 8 f 0.2174 0.064 0.4151 . 1. 0
H3 H1+ 8 f 0.4473 0.4182 0.2283 . 1. 0
H4 H1+ 8 f 0.38 0.4 0.48 . 1. 0
H5 H1+ 8 f 0.4177 0.1888 0.4363 . 1. 0
loop_
_atom_site_aniso_label
_atom_site_aniso_type_symbol
_atom_site_aniso_beta_11
_atom_site_aniso_beta_22
_atom_site_aniso_beta_33
_atom_site_aniso_beta_12
_atom_site_aniso_beta_13
_atom_site_aniso_beta_23
Na1 Na1+ 0.0035(1) 0.0070(8) 0.0048(2) -.0001(4) 0.0056(2) -.0015(6)
Ca1 Ca2+ 0.0012(1) 0.0029(5) 0.0020(1) 0 0.0019(1) 0
O1 O2- 0.0022(2) 0.0037(10) 0.0037(3) -.0006(7) 0.0036(3) -.0014(9)
O2 O2- 0.0029(2) 0.0012(9) 0.0036(3) -.0003(7) 0.0029(3) 0.0008(10)
O3 O2- 0.0028(2) 0.0058(10) 0.0059(3) 0.0057(7) 0.0057(3) 0.0048(11)
O4 O2- 0.0028(2) 0.0064(10) 0.0043(3) 0.0011(8) 0.0045(3) 0.0017(10)
O5 O2- 0.0031(2) 0.0037(10) 0.0045(3) -.0002(8) 0.0044(3) 0.0008(11)
O6 O2- 0.0029(3) 0.0060(15) 0.0043(4) 0 0.0047(4) 0
C1 C4+ 0.0024(2) 0.0006(15) 0.0036(4) 0.0015(10) 0.0036(3) 0.0020(13)
#End of TTdata_26969-ICSD