
#(C) 2019 by FIZ Karlsruhe - Leibniz Institute for Information Infrastructure.  All rights reserved.
data_281389-ICSD
_database_code_ICSD 281389
_audit_creation_date 2004-04-01
_chemical_name_systematic 'Disodium carbonate sesquiperhydrate'
_chemical_formula_structural 'Na2 (C O3) (H2 O2)1.5'
_chemical_formula_sum 'C1 H3 Na2 O6'
_chemical_name_structure_type Na2CO3(H2O)1.5
_exptl_crystal_density_diffrn 2.14
_publ_section_title 'Sodium percarbonate between 293 and 100 K'
loop_
_citation_id
_citation_journal_full
_citation_year
_citation_journal_volume
_citation_page_first
_citation_page_last
_citation_journal_id_ASTM
primary 'Acta Crystallographica, Section B: Structural Science' 2003 59 596 605
ASBSDK
loop_
_publ_author_name
'Pritchard, R.G.'
'Islam, E.'
_cell_length_a 9.183(1)
_cell_length_b 15.745(1)
_cell_length_c 6.730(1)
_cell_angle_alpha 90.
_cell_angle_beta 90.
_cell_angle_gamma 90.
_cell_volume 973.07
_cell_formula_units_Z 8
_symmetry_space_group_name_H-M 'A b a 2'
_symmetry_Int_Tables_number 41
_refine_ls_R_factor_all 0.0317
loop_
_symmetry_equiv_pos_site_id
_symmetry_equiv_pos_as_xyz
1 'x+1/2, -y+1/2, z'
2 '-x+1/2, y+1/2, z'
3 '-x, -y, z'
4 'x, y, z'
5 'x+1/2, -y, z+1/2'
6 '-x+1/2, y, z+1/2'
7 '-x, -y+1/2, z+1/2'
8 'x, y+1/2, z+1/2'
loop_
_atom_type_symbol
_atom_type_oxidation_number
Na1+ 1
C4+ 4
O2- -2
O1- -1
H1+ 1
loop_
_atom_site_label
_atom_site_type_symbol
_atom_site_symmetry_multiplicity
_atom_site_Wyckoff_symbol
_atom_site_fract_x
_atom_site_fract_y
_atom_site_fract_z
_atom_site_B_iso_or_equiv
_atom_site_occupancy
_atom_site_attached_hydrogens
Na1 Na1+ 8 b 0.7503(3) 0.01083(7) 0.3223(5) 0.0288(4) 1. 0
Na2 Na1+ 8 b 0.4992(3) 0.2501(2) 0.3216(5) 0.0247(4) 1. 0
C1 C4+ 8 b 0.7496(3) 0.33812(16) 0.0719(9) 0.0151(6) 1. 0
O1 O2- 8 b 0.6769(2) 0.26793(12) 0.0794(9) 0.0224(5) 1. 0
O2 O2- 8 b 0.6825(2) 0.40948(12) 0.0728(9) 0.0247(5) 1. 0
O3 O2- 8 b 0.8894(2) 0.33478(12) 0.0773(10) 0.0245(5) 1. 0
O4 O1- 8 b 0.9118(10) 0.1172(6) -.0208(13) 0.0264(17) 0.5 0
O5 O1- 8 b 0.8451(12) 0.1394(6) 0.1670(14) 0.0284(19) 0.5 0
O6 O1- 8 b 0.8344(11) 0.1362(7) -.0184(14) 0.0285(17) 0.5 0
O7 O1- 8 b 0.9087(10) 0.1086(6) 0.1710(14) 0.029(2) 0.5 0
O8 O1- 8 b 0.5199(15) 0.0261(6) 0.1648(16) 0.056(4) 0.5 0
O9 O1- 8 b 0.5449(13) 0.0321(6) 0.042(2) 0.051(3) 0.5 0
H1 H1+ 8 b 1.004 0.113 0.025 0.04 0.5 0
H2 H1+ 8 b 0.788 0.188 0.125 0.04 0.5 0
H3 H1+ 8 b 0.792 0.188 0.025 0.04 0.5 0
H4 H1+ 8 b 1.01 0.11 0.125 0.04 0.5 0
H5 H1+ 8 b 0.471 0.075 0.12 0.04 0.5 0
H6 H1+ 8 b 0.479 0.079 0.045 0.04 0.5 0
loop_
_atom_site_aniso_label
_atom_site_aniso_type_symbol
_atom_site_aniso_U_11
_atom_site_aniso_U_22
_atom_site_aniso_U_33
_atom_site_aniso_U_12
_atom_site_aniso_U_13
_atom_site_aniso_U_23
Na1 Na1+ 0.0365(7) 0.0224(7) 0.0274(7) -0.0031(11) 0.0027(5) -0.0061(15)
Na2 Na1+ 0.0232(6) 0.0286(7) 0.0224(6) -0.0031(4) 0.0009(4) -0.0007(5)
C1 C4+ 0.0138(11) 0.0145(12) 0.0170(13) 0.0007(9) -0.003(2) -0.003(2)
O1 O2- 0.0197(10) 0.0175(11) 0.0302(11) -0.0012(7) 0.0028(19) 0.007(2)
O2 O2- 0.0217(10) 0.0179(10) 0.0346(12) 0.0007(7) -0.008(2) -0.003(3)
O3 O2- 0.0167(9) 0.0207(11) 0.0362(12) 0.0007(7) -0.0056(19) -0.0025(19)
O4 O1- 0.022(4) 0.023(4) 0.034(4) 0.012(3) -0.005(3) -0.010(3)
O5 O1- 0.032(5) 0.015(4) 0.038(5) 0.001(4) 0.004(4) 0.017(4)
O6 O1- 0.022(4) 0.032(5) 0.032(5) 0.007(4) -0.003(3) 0.004(4)
O7 O1- 0.022(4) 0.029(5) 0.036(4) -0.006(4) -0.003(4) 0.011(3)
O8 O1- 0.069(7) 0.033(6) 0.067(6) 0.021(6) -0.038(7) -0.014(4)
O9 O1- 0.051(4) 0.025(4) 0.076(7) 0.015(3) 0.061(5) 0.024(4)
#End of TTdata_281389-ICSD