
#(C) 2019 by FIZ Karlsruhe - Leibniz Institute for Information Infrastructure.  All rights reserved.
data_281386-ICSD
_database_code_ICSD 281386
_audit_creation_date 2004-04-01
_chemical_name_systematic 'Disodium carbonate sesquiperhydrate'
_chemical_formula_structural 'Na2 (C O3) (H2 O2)1.5'
_chemical_formula_sum 'C1 H3 Na2 O6'
_chemical_name_structure_type Na2CO3(H2O2)1.5(Pbca)
_exptl_crystal_density_diffrn 2.18
_cell_measurement_temperature 150.
_publ_section_title 'Sodium percarbonate between 293 and 100 K'
loop_
_citation_id
_citation_journal_full
_citation_year
_citation_journal_volume
_citation_page_first
_citation_page_last
_citation_journal_id_ASTM
primary 'Acta Crystallographica, Section B: Structural Science' 2003 59 596 605
ASBSDK
loop_
_publ_author_name
'Pritchard, R.G.'
'Islam, E.'
_cell_length_a 6.6592(2)
_cell_length_b 15.7511(8)
_cell_length_c 9.1254(4)
_cell_angle_alpha 90.
_cell_angle_beta 90.
_cell_angle_gamma 90.
_cell_volume 957.16
_cell_formula_units_Z 8
_symmetry_space_group_name_H-M 'P b c a'
_symmetry_Int_Tables_number 61
_refine_ls_R_factor_all 0.027
loop_
_symmetry_equiv_pos_site_id
_symmetry_equiv_pos_as_xyz
1 'x+1/2, y, -z+1/2'
2 'x, -y+1/2, z+1/2'
3 '-x+1/2, y+1/2, z'
4 '-x, -y, -z'
5 '-x+1/2, -y, z+1/2'
6 '-x, y+1/2, -z+1/2'
7 'x+1/2, -y+1/2, -z'
8 'x, y, z'
loop_
_atom_type_symbol
_atom_type_oxidation_number
C4+ 4
Na1+ 1
O2- -2
O1- -1
H1+ 1
loop_
_atom_site_label
_atom_site_type_symbol
_atom_site_symmetry_multiplicity
_atom_site_Wyckoff_symbol
_atom_site_fract_x
_atom_site_fract_y
_atom_site_fract_z
_atom_site_B_iso_or_equiv
_atom_site_occupancy
_atom_site_attached_hydrogens
C1 C4+ 8 c -.00404(8) 0.33813(5) 0.25197(9) 0.0102(2) 1. 0
Na1 Na1+ 8 c 0.25355(4) 0.01082(2) 0.26340(3) 0.01531(9) 1. 0
Na2 Na1+ 8 c 0.24247(4) 0.249537(18) -.00014(3) 0.01371(10) 1. 0
O1 O2- 8 c -.01028(7) 0.26850(3) 0.17777(7) 0.01302(15) 1. 0
O2 O2- 8 c 0.00461(7) 0.40994(4) 0.18480(7) 0.01311(15) 1. 0
O3 O2- 8 c -.00723(6) 0.33487(4) 0.39252(7) 0.01354(15) 1. 0
O4 O1- 8 c -.09986(8) 0.13774(3) 0.33929(7) 0.01697(15) 1. 0
O5 O1- 8 c 0.09177(8) 0.11475(3) 0.41085(7) 0.01640(14) 1. 0
O6 O1- 8 c 0.08711(13) 0.02639(6) 0.02090(11) 0.0193(3) 0.7242(18) 0
O7 O1- 8 c 0.0247(4) 0.03343(16) 0.0540(3) 0.0211(7) 0.2758(18) 0
H1 H1+ 8 c -.0491(15) 0.1856(7) 0.2752(14) 0.047(3) 1. 0
H2 H1+ 8 c 0.0407(13) 0.1009(7) 0.5075(14) 0.040(3) 1. 0
H3 H1+ 8 c 0.0305(13) 0.0782(8) -.0163(14) 0.039(3) 1. 0
loop_
_atom_site_aniso_label
_atom_site_aniso_type_symbol
_atom_site_aniso_U_11
_atom_site_aniso_U_22
_atom_site_aniso_U_33
_atom_site_aniso_U_12
_atom_site_aniso_U_13
_atom_site_aniso_U_23
C1 C4+ 0.0065(4) 0.0122(4) 0.0120(5) 0.0001(3) -0.0003(3) 0.0002(3)
Na1 Na1+ 0.01416(19) 0.01326(17) 0.0185(2) 0.00042(11) 0.00193(13) -0.00036(13)
Na2 Na1+ 0.0119(2) 0.01554(19) 0.0137(2) -0.00022(12) 0.00023(13) -0.00171(14)
O1 O2- 0.0156(3) 0.0113(3) 0.0121(3) -0.00051(19) 0.0003(2) -0.0006(2)
O2 O2- 0.0154(3) 0.0113(3) 0.0126(3) -0.00039(19) 0.0004(2) 0.0009(3)
O3 O2- 0.0168(3) 0.0137(3) 0.0102(3) -0.0005(2) -0.0001(2) -0.0001(2)
O4 O1- 0.0159(3) 0.0175(3) 0.0176(3) -0.0011(2) -0.0058(2) 0.0024(3)
O5 O1- 0.0154(3) 0.0199(3) 0.0139(3) 0.0041(2) -0.0015(2) -0.0002(3)
O6 O1- 0.0190(5) 0.0156(4) 0.0233(5) -0.0061(4) -0.0084(4) 0.0036(4)
O7 O1- 0.0397(16) 0.0103(12) 0.0133(14) -0.0062(10) -0.0057(12) 0.0018(10)
#End of TTdata_281386-ICSD