
#(C) 2019 by FIZ Karlsruhe - Leibniz Institute for Information Infrastructure.  All rights reserved.
data_40090-ICSD
_database_code_ICSD 40090
_audit_creation_date 1998-06-26
_audit_update_record 2012-02-01
_chemical_name_systematic 'Disodium copper dioxalate dihydrate'
_chemical_formula_structural 'Na2 Cu (C2 O4)2 (H2 O)2'
_chemical_formula_sum 'C4 H4 Cu1 Na2 O10'
_chemical_name_structure_type Na2Cu(C2O4)2(H2O)2
_chemical_name_mineral Wheatleyite
_exptl_crystal_density_diffrn 2.27
_publ_section_title

;
Crystal structure and magnetism of sodium bis(oxalato)cuprate, Na2 Cu (C2 O4)2
* 2(H2 O)
;
loop_
_citation_id
_citation_journal_full
_citation_year
_citation_journal_volume
_citation_page_first
_citation_page_last
_citation_journal_id_ASTM
primary 'Inorganic Chemistry' 1980 19 2074 2078 INOCAJ
loop_
_publ_author_name
'Gleizes, A.'
'Maury, F.'
'Galy, J.'
_cell_length_a 7.536(3)
_cell_length_b 9.473(4)
_cell_length_c 3.576(2)
_cell_angle_alpha 81.90(6)
_cell_angle_beta 103.77(5)
_cell_angle_gamma 108.08(4)
_cell_volume 235.08
_cell_formula_units_Z 1
_symmetry_space_group_name_H-M 'P -1'
_symmetry_Int_Tables_number 2
_refine_ls_R_factor_all 0.027
loop_
_symmetry_equiv_pos_site_id
_symmetry_equiv_pos_as_xyz
1 '-x, -y, -z'
2 'x, y, z'
loop_
_atom_type_symbol
_atom_type_oxidation_number
Cu2+ 2
Na1+ 1
O2- -2
C3+ 3
O2- -2
H1+ 1
loop_
_atom_site_label
_atom_site_type_symbol
_atom_site_symmetry_multiplicity
_atom_site_Wyckoff_symbol
_atom_site_fract_x
_atom_site_fract_y
_atom_site_fract_z
_atom_site_B_iso_or_equiv
_atom_site_occupancy
_atom_site_attached_hydrogens
Cu1 Cu2+ 1 a 0 0 0 . 1. 0
Na1 Na1+ 2 i 0.2979(1) 0.57239(7) 0.6073(2) . 1. 0
O1 O2- 2 i 0.2327(1) 0.1623(1) 0.0424(3) . 1. 0
O2 O2- 2 i -.0914(1) 0.1244(1) 0.2459(3) . 1. 0
O3 O2- 2 i 0.3436(2) 0.3952(1) 0.2198(4) . 1. 0
O4 O2- 2 i 0.0016(2) 0.3564(1) 0.4265(4) . 1. 0
C1 C3+ 2 i 0.2200(2) 0.2756(1) 0.1794(4) . 1. 0
C2 C3+ 2 i 0.0279(2) 0.2544(1) 0.2939(4) . 1. 0
O5 O2- 2 i 0.3945(2) 0.7525(2) 0.1073(4) . 1. 0
H1 H1+ 2 i 0.5279 0.8117 0.0895 2. 1. 0
H2 H1+ 2 i 0.3282 0.8304 -.0006 2. 1. 0
loop_
_atom_site_aniso_label
_atom_site_aniso_type_symbol
_atom_site_aniso_B_11
_atom_site_aniso_B_22
_atom_site_aniso_B_33
_atom_site_aniso_B_12
_atom_site_aniso_B_13
_atom_site_aniso_B_23
Cu1 Cu2+ 1.11(1) 0.84(1) 1.92(1) 0.067(5) 0.51(1) -.54(1)
Na1 Na1+ 2.63(2) 2.17(2) 2.53(3) 0.50(2) 0.69(2) -.49(2)
O1 O2- 1.29(4) 1.16(3) 2.31(5) 0.11(3) 0.62(3) -.61(3)
O2 O2- 1.31(4) 1.15(3) 2.41(5) 0.13(3) 0.68(3) -.59(3)
O3 O2- 1.49(4) 1.15(3) 2.46(5) -.16(3) 0.47(3) -.58(3)
O4 O2- 1.85(4) 1.43(4) 2.72(6) 0.52(3) 0.45(4) -.92(4)
C1 C3+ 1.21(4) 1.10(4) 1.27(5) 0.23(3) 0.22(4) -.23(3)
C2 C3+ 1.23(4) 1.02(4) 1.44(6) 0.35(3) 0.15(4) -.26(3)
O5 O2- 1.58(5) 2.42(5) 2.94(7) 0.70(4) 0.56(4) 0.05(4)
#End of TTdata_40090-ICSD