
#(C) 2019 by FIZ Karlsruhe - Leibniz Institute for Information Infrastructure.  All rights reserved.
data_405229-ICSD
_database_code_ICSD 405229
_audit_creation_date 2003-04-01
_chemical_name_systematic 'Sodium dirubidium hydrogendicarbonate dihydrate'
_chemical_formula_structural 'Na Rb2 (H (C O3)2) (H2 O)2'
_chemical_formula_sum 'C2 H5 Na1 O8 Rb2'
_chemical_name_structure_type NaK2H(CO3)2(H2O)2
_exptl_crystal_density_diffrn 2.55
_publ_section_title

;
Darstellung und Struktur der ersten gemischten Alkalimetall- hydrogencarbonate
Na A2 (H (C O3)2) * 2(H2 O) mit A= K, Rb
;
loop_
_citation_id
_citation_journal_full
_citation_year
_citation_journal_volume
_citation_page_first
_citation_page_last
_citation_journal_id_ASTM
primary 'Zeitschrift fuer Anorganische und Allgemeine Chemie (1950) (DE)' 1996
622 2023 2030 ZAACAB
loop_
_publ_author_name
'Adam, A.'
'Cirpus, V.'
_cell_length_a 9.4824(11)
_cell_length_b 8.1137(9)
_cell_length_c 11.890(2)
_cell_angle_alpha 90.
_cell_angle_beta 90.
_cell_angle_gamma 90.
_cell_volume 914.79
_cell_formula_units_Z 4
_symmetry_space_group_name_H-M 'P n m a'
_symmetry_Int_Tables_number 62
_refine_ls_R_factor_all 0.0623
loop_
_symmetry_equiv_pos_site_id
_symmetry_equiv_pos_as_xyz
1 'x+1/2, y, -z+1/2'
2 'x, -y+1/2, z'
3 '-x+1/2, y+1/2, z+1/2'
4 '-x, -y, -z'
5 '-x+1/2, -y, z+1/2'
6 '-x, y+1/2, -z'
7 'x+1/2, -y+1/2, -z+1/2'
8 'x, y, z'
loop_
_atom_type_symbol
_atom_type_oxidation_number
Na1+ 1
Rb1+ 1
O2- -2
C4+ 4
O2- -2
C4+ 4
O2- -2
H1+ 1
loop_
_atom_site_label
_atom_site_type_symbol
_atom_site_symmetry_multiplicity
_atom_site_Wyckoff_symbol
_atom_site_fract_x
_atom_site_fract_y
_atom_site_fract_z
_atom_site_B_iso_or_equiv
_atom_site_occupancy
_atom_site_attached_hydrogens
Na1 Na1+ 4 c 0.0604(2) 0.25 0.3196(2) . 1. 0
Rb1 Rb1+ 8 d 0.21948(4) 0.51017(3) 0.10679(3) . 1. 0
O1 O2- 4 c 0.2625(4) 0.25 0.4311(3) . 1. 0
O2 O2- 4 c 0.3216(4) 0.25 0.2499(3) . 1. 0
O3 O2- 4 c 0.4885(4) 0.25 0.3793(3) . 1. 0
C1 C4+ 4 c 0.3509(5) 0.25 0.3530(4) . 1. 0
O4 O2- 4 c 0.5157(4) 0.25 0.5866(3) . 1. 0
O5 O2- 4 c 0.7483(4) 0.25 0.5681(3) . 1. 0
O6 O2- 4 c 0.6490(4) 0.25 0.7375(3) . 1. 0
C2 C4+ 4 c 0.6407(6) 0.25 0.6317(4) . 1. 0
O7 O2- 8 d 0.4539(4) 0.0376(4) 0.8342(3) . 1. 0
H1 H1+ 4 c 0.5015(68) 0.25 0.4856(56) 0.106(36) 1. 0
H2 H1+ 8 d 0.4052(44) 0.0748(45) 0.8520(36) 0.015(14) 1. 0
H3 H1+ 8 d 0.5068(40) 0.1046(50) 0.7849(38) 0.052(14) 1. 0
loop_
_atom_site_aniso_label
_atom_site_aniso_type_symbol
_atom_site_aniso_U_11
_atom_site_aniso_U_22
_atom_site_aniso_U_33
_atom_site_aniso_U_12
_atom_site_aniso_U_13
_atom_site_aniso_U_23
Na1 Na1+ 0.0232(11) 0.0248(9) 0.0278(11) 0 -0.0073(10) 0
Rb1 Rb1+ 0.0302(2) 0.0225(2) 0.0239(2) -0.00063(15) -0.0041(2) 0.0024(2)
O1 O2- 0.015(2) 0.039(2) 0.016(2) 0 0.001(2) 0
O2 O2- 0.024(2) 0.031(2) 0.015(2) 0 -0.005(2) 0
O3 O2- 0.017(2) 0.043(2) 0.020(2) 0 -0.001(2) 0
C1 C4+ 0.017(3) 0.015(2) 0.022(3) 0 -0.003(2) 0
O4 O2- 0.017(2) 0.063(3) 0.019(2) 0 -0.003(2) 0
O5 O2- 0.019(2) 0.039(2) 0.019(2) 0 0.000(2) 0
O6 O2- 0.024(2) 0.037(2) 0.015(2) 0 -0.002(2) 0
C2 C4+ 0.024(3) 0.018(2) 0.017(3) 0 -0.001(2) 0
O7 O2- 0.031(2) 0.0270(14) 0.047(2) 0.0042(14) 0.012(2) 0.0008(15)
#End of TTdata_405229-ICSD