
#(C) 2018 by FIZ Karlsruhe - Leibniz Institute for Information Infrastructure.  All rights reserved.
data_428781-ICSD
_database_code_ICSD 428781
_audit_creation_date 2016-02-01
_chemical_name_systematic 'Lithium tricyanomethanide hemiacetonate'
_chemical_formula_structural 'Li (C (C N)3) ((H3 C)2 C O)0.5'
_chemical_formula_sum 'C5.5 H3 Li1 N3 O0.5'
_exptl_crystal_density_diffrn 1.22
_cell_measurement_temperature 203.
_publ_section_title

;
Two lithium tricyanomethanide compounds: Syntheses and single-crystal
structure determination of Li K [C (C N)3]2 and Li [C (C N)3] * 1/2 (H3 C)2 C
O
;
loop_
_citation_id
_citation_journal_full
_citation_year
_citation_journal_volume
_citation_page_first
_citation_page_last
_citation_journal_id_ASTM
primary 'Zeitschrift fuer Naturforschung, B: Chemical Sciences' 2015 70 191 196
ZNBSEN
loop_
_publ_author_name
'Reckeweg, Olaf'
'DiSalvo, Francis J.'
_cell_length_a 7.9497(14)
_cell_length_b 11.651(2)
_cell_length_c 14.854(3)
_cell_angle_alpha 90.
_cell_angle_beta 90.
_cell_angle_gamma 90.
_cell_volume 1375.8
_cell_formula_units_Z 8
_symmetry_space_group_name_H-M 'I m a 2'
_symmetry_Int_Tables_number 46
_refine_ls_R_factor_all 0.0426
loop_
_symmetry_equiv_pos_site_id
_symmetry_equiv_pos_as_xyz
1 'x+1/2, -y, z'
2 '-x+1/2, y, z'
3 '-x, -y, z'
4 'x, y, z'
5 'x, -y+1/2, z+1/2'
6 '-x, y+1/2, z+1/2'
7 '-x+1/2, -y+1/2, z+1/2'
8 'x+1/2, y+1/2, z+1/2'
loop_
_atom_type_symbol
_atom_type_oxidation_number
Li1+ 1
O2- -2
C2+ 2
C1- -1.33
H1+ 1
C1- -1.33
C2+ 2
N3- -3
C2+ 2
N3- -3
C2+ 2
N3- -3
C2+ 2
N3- -3
loop_
_atom_site_label
_atom_site_type_symbol
_atom_site_symmetry_multiplicity
_atom_site_Wyckoff_symbol
_atom_site_fract_x
_atom_site_fract_y
_atom_site_fract_z
_atom_site_B_iso_or_equiv
_atom_site_occupancy
_atom_site_attached_hydrogens
Li1 Li1+ 4 b 0.25 0.6870(5) 0.4166(4) 0.0370(15) 1 0
Li2 Li1+ 4 b 0.25 0.6666(6) 0.0853(4) 0.0447(18) 1 0
O1 O2- 4 b 0.25 0.8601(2) 0.44740(18) 0.0380(7) 1 0
C1 C2+ 4 b 0.25 0.9420(4) 0.3948(3) 0.0441(11) 1 0
C2 C1- 4 b 0.25 0.9224(6) 0.2960(3) 0.0706(17) 1 0
C3 C1- 4 b 0.25 0.0618(4) 0.4307(5) 0.0843(19) 1 0
H1 H1+ 8 c 0.155(4) 0.108(4) 0.411(3) 0.135(17) 1 0
H2 H1+ 4 b 0.25 0.075(6) 0.505(6) 0.17(3) 1 0
H3 H1+ 8 c 0.182(6) 0.969(4) 0.268(3) 0.16(2) 1 0
H4 H1+ 4 b 0.25 0.845(7) 0.273(6) 0.20(4) 1 0
C4 C1- 4 b 0.25 0.3501(3) 0.5711(2) 0.0342(9) 1 0
C5 C2+ 8 c 0.4031(3) 0.2934(2) 0.58539(16) 0.0372(7) 1 0
N1 N3- 8 c 0.5308(2) 0.2482(2) 0.59644(18) 0.0477(6) 1 0
C6 C2+ 4 b 0.25 0.4604(4) 0.5323(3) 0.0378(10) 1 0
N2 N3- 4 b 0.25 0.5502(3) 0.5008(2) 0.0468(10) 1 0
C7 C2+ 4 b 0.25 0.3819(3) 0.2834(2) 0.0331(9) 1 0
C8 C2+ 8 c 0.0965(3) 0.3484(2) 0.32158(16) 0.0340(6) 1 0
N3 N3- 8 c 0.0311(3) 0.67797(19) 0.35178(17) 0.0485(7) 1 0
C9 C2+ 4 b 0.25 0.4589(4) 0.2113(3) 0.0363(10) 1 0
N4 N3- 4 b 0.25 0.5223(3) 0.1520(2) 0.0555(11) 1 0
loop_
_atom_site_aniso_label
_atom_site_aniso_type_symbol
_atom_site_aniso_U_11
_atom_site_aniso_U_22
_atom_site_aniso_U_33
_atom_site_aniso_U_12
_atom_site_aniso_U_13
_atom_site_aniso_U_23
Li1 Li1+ 0.033(3) 0.029(3) 0.049(4) 0. 0. -0.005(3)
Li2 Li1+ 0.026(3) 0.057(5) 0.051(4) 0. 0. 0.018(4)
O1 O2- 0.0370(14) 0.0290(16) 0.0481(15) 0. 0. -0.0036(14)
C1 C2+ 0.030(2) 0.035(3) 0.068(3) 0. 0. 0.007(2)
C2 C1- 0.099(5) 0.067(4) 0.046(3) 0. 0. 0.021(3)
C3 C1- 0.122(6) 0.032(3) 0.099(6) 0. 0. 0.002(3)
C4 C1- 0.022(2) 0.034(2) 0.047(2) 0. 0. 0.006(2)
C5 C2+ 0.0323(16) 0.0352(16) 0.0441(16) -0.0090(13) 0.0047(15) 0.0073(15)
N1 N3- 0.0261(11) 0.0476(14) 0.0696(16) 0.0001(12) 0.0033(12) 0.0137(12)
C6 C2+ 0.027(2) 0.038(3) 0.048(3) 0. 0. -0.004(2)
N2 N3- 0.0346(19) 0.039(2) 0.067(2) 0. 0. 0.001(2)
C7 C2+ 0.025(2) 0.034(2) 0.040(2) 0. 0. 0.0111(19)
C8 C2+ 0.0311(15) 0.0374(16) 0.0336(14) 0.0037(12) -0.0029(13) 0.0066(13)
N3 N3- 0.0339(13) 0.0561(16) 0.0556(15) -0.0006(11) -0.0055(12) -0.0151(14)
C9 C2+ 0.028(2) 0.034(2) 0.047(3) 0. 0. 0.008(2)
N4 N3- 0.041(2) 0.062(3) 0.064(2) 0. 0. 0.032(2)
#End of TTdata_428781-ICSD