
#(C) 2019 by FIZ Karlsruhe - Leibniz Institute for Information Infrastructure.  All rights reserved.
data_4424-ICSD
_database_code_ICSD 4424
_audit_creation_date 1980-01-01
_audit_update_record 2012-02-01
_chemical_name_systematic 'Calcium disodium dicarbonate pentahydrate'
_chemical_formula_structural 'Ca Na2 (C O3)2 (H2 O)5'
_chemical_formula_sum 'C2 H10 Ca1 Na2 O11'
_chemical_name_structure_type Na2Ca(CO3)2(H2O)5
_chemical_name_mineral Gaylussite
_exptl_crystal_density_diffrn 1.99
_publ_section_title

;
The crystal structure of Ca Na2 (C O3)2 (H2 O)5, synthetic gaylussite, and Ca
Na2 (C O3)2 (H2 O)2, synthetic pirssonite
;
loop_
_citation_id
_citation_journal_full
_citation_year
_citation_journal_volume
_citation_page_first
_citation_page_last
_citation_journal_id_ASTM
primary 'Inorganic Chemistry' 1969 8 2093 2103 INOCAJ
loop_
_publ_author_name
'Dickens, B.'
'Brown, W.E.'
_cell_length_a 14.361(2)
_cell_length_b 7.781(1)
_cell_length_c 11.209(2)
_cell_angle_alpha 90.
_cell_angle_beta 127.84(1)
_cell_angle_gamma 90.
_cell_volume 989.15
_cell_formula_units_Z 4
_symmetry_space_group_name_H-M 'C 1 2/c 1'
_symmetry_Int_Tables_number 15
_refine_ls_R_factor_all 0.054
loop_
_symmetry_equiv_pos_site_id
_symmetry_equiv_pos_as_xyz
1 'x, -y, z+1/2'
2 '-x, -y, -z'
3 '-x, y, -z+1/2'
4 'x, y, z'
5 'x+1/2, -y+1/2, z+1/2'
6 '-x+1/2, -y+1/2, -z'
7 '-x+1/2, y+1/2, -z+1/2'
8 'x+1/2, y+1/2, z'
loop_
_atom_type_symbol
_atom_type_oxidation_number
Ca2+ 2
Na1+ 1
C4+ 4
O2- -2
H1+ 1
loop_
_atom_site_label
_atom_site_type_symbol
_atom_site_symmetry_multiplicity
_atom_site_Wyckoff_symbol
_atom_site_fract_x
_atom_site_fract_y
_atom_site_fract_z
_atom_site_B_iso_or_equiv
_atom_site_occupancy
_atom_site_attached_hydrogens
Ca1 Ca2+ 4 e 0 0.1929(1) 0.25 . 1. 0
Na1 Na1+ 8 f 0.0881(1) 0.1822(1) -.0107(1) . 1. 0
C1 C4+ 8 f 0.1853(2) -.0286(2) 0.3161(2) . 1. 0
O1 O2- 8 f 0.2852(1) -.0906(2) 0.3633(2) . 1. 0
O2 O2- 8 f 0.1033(1) 0.0031(2) 0.1749(1) . 1. 0
O3 O2- 8 f 0.1658(1) 0.0095(2) 0.4113(1) . 1. 0
O4 O2- 4 e 0 0.6791(3) 0.25 . 1. 0
O5 O2- 8 f 0.0696(1) 0.2935(2) 0.5029(2) . 1. 0
O6 O2- 8 f 0.1467(1) 0.4048(2) 0.3109(2) . 1. 0
H1 H1+ 8 f 0.06 0.6 0.28 1. 1. 0
H2 H1+ 8 f 0.09 0.2 0.57 1. 1. 0
H3 H1+ 8 f 0.12 0.38 0.56 1. 1. 0
H4 H1+ 8 f 0.21 0.44 0.41 1. 1. 0
H5 H1+ 8 f 0.17 0.41 0.25 1. 1. 0
loop_
_atom_site_aniso_label
_atom_site_aniso_type_symbol
_atom_site_aniso_B_11
_atom_site_aniso_B_22
_atom_site_aniso_B_33
_atom_site_aniso_B_12
_atom_site_aniso_B_13
_atom_site_aniso_B_23
Ca1 Ca2+ 0.59(1) 1.27(2) 0.86(2) 0 0.4101 0
Na1 Na1+ 1.56(3) 1.92(3) 1.67(3) 0.06(3) 1.12(3) -.16(3)
C1 C4+ 0.94(6) 1.18(6) 1.18(6) 0.01(5) 0.65(5) 0.11(5)
O1 O2- 1.26(5) 2.88(6) 1.85(6) 0.96(4) 1.13(5) 0.67(5)
O2 O2- 1.07(4) 2.09(5) 0.90(5) 0.01(4) 0.44(4) -.01(4)
O3 O2- 0.94(4) 1.97(5) 0.99(5) 0.10(4) 0.67(4) 0.00(4)
O4 O2- 1.84(8) 1.90(8) 2.22(9) 0 1.16(8) 0
O5 O2- 1.44(5) 2.02(6) 1.50(5) 0.13(5) 0.83(5) -.06(5)
O6 O2- 1.12(5) 2.60(5) 1.27(5) -.47(5) 0.76(4) -.22(5)
#End of TTdata_4424-ICSD