
#(C) 2019 by FIZ Karlsruhe - Leibniz Institute for Information Infrastructure.  All rights reserved.
data_71938-ICSD
_database_code_ICSD 71938
_audit_creation_date 1993-08-22
_chemical_name_systematic
'Trisodium tetra-mue-carbonato-diruthenate hexahydrate'
_chemical_formula_structural 'Na3 (Ru2 (C O3)4) (H2 O)6'
_chemical_formula_sum 'C4 H12 Na3 O18 Ru2'
_exptl_crystal_density_diffrn 2.57
_publ_section_title
'Further study of tetracarbonato diruthenium(II,III) compounds'
loop_
_citation_id
_citation_journal_full
_citation_year
_citation_journal_volume
_citation_page_first
_citation_page_last
_citation_journal_id_ASTM
primary 'Inorganic Chemistry' 1992 31 2385 2389 INOCAJ
loop_
_publ_author_name
'Albert Cotton, F.'
'Labella, L.'
'Shang, M.'
_cell_length_a 9.469(2)
_cell_length_b 9.599(2)
_cell_length_c 9.879(2)
_cell_angle_alpha 110.41(2)
_cell_angle_beta 72.05(2)
_cell_angle_gamma 93.35(2)
_cell_volume 799.39
_cell_formula_units_Z 2
_symmetry_space_group_name_H-M 'P -1'
_symmetry_Int_Tables_number 2
_refine_ls_R_factor_all 0.022
loop_
_symmetry_equiv_pos_site_id
_symmetry_equiv_pos_as_xyz
1 '-x, -y, -z'
2 'x, y, z'
loop_
_atom_type_symbol
_atom_type_oxidation_number
Ru2+ 2.5
Na1+ 1
O2- -2
C4+ 4
H1+ 1
loop_
_atom_site_label
_atom_site_type_symbol
_atom_site_symmetry_multiplicity
_atom_site_Wyckoff_symbol
_atom_site_fract_x
_atom_site_fract_y
_atom_site_fract_z
_atom_site_B_iso_or_equiv
_atom_site_occupancy
_atom_site_attached_hydrogens
Ru1 Ru2+ 2 i 0.03900(3) 0.11319(3) 0.05008(3) . 1. 0
Ru2 Ru2+ 2 i 0.44276(3) 0.59656(3) 0.99306(3) . 1. 0
Na1 Na1+ 2 i 0.3770(2) 0.1590(2) 0.1993(2) . 1. 0
Na2 Na1+ 1 f 0.5 0 0.5 . 1. 0
Na3 Na1+ 2 i -.0066(2) 0.6000(2) 0.3819(2) . 1. 0
Na4 Na1+ 2 i -.0296(5) 0.4457(5) 0.0057(4) . 0.5 0
O1 O2- 2 i 0.1485(3) 0.1121(3) 0.8391(3) . 1. 0
O2 O2- 2 i 0.2242(3) 0.0137(3) 0.0470(3) . 1. 0
O3 O2- 2 i -.0691(3) 0.1130(3) 0.2623(3) . 1. 0
O4 O2- 2 i 0.8554(3) 0.2124(3) 0.0488(3) . 1. 0
O5 O2- 2 i 0.2098(4) 0.0022(4) 0.5894(3) . 1. 0
O6 O2- 2 i 0.3667(3) 0.8134(3) -.0116(3) . 1. 0
O7 O2- 2 i 0.4352(3) 0.7155(3) 0.2076(3) . 1. 0
O8 O2- 2 i 0.4451(3) 0.4737(3) 0.7795(3) . 1. 0
O9 O2- 2 i 0.6449(3) 0.6710(3) -.0832(3) . 1. 0
O10 O2- 2 i 0.2418(3) 0.5230(3) 0.0709(3) . 1. 0
O11 O2- 2 i 0.4993(4) 0.7417(3) 0.4118(3) . 1. 0
O12 O2- 2 i 0.1085(3) 0.3533(3) 0.1429(3) . 1. 0
O13 O2- 2 i 0.5189(3) -.0018(3) 0.2473(3) . 1. 0
O14 O2- 2 i 0.5830(4) 0.6309(4) 0.5980(3) . 1. 0
O15 O2- 2 i 0.1606(4) 0.1740(4) 0.4079(4) . 1. 0
O16 O2- 2 i 0.8520(4) 0.6256(4) 0.2340(4) . 1. 0
O17 O2- 2 i 0.8810(4) 0.1875(5) 0.6550(4) . 1. 0
O18 O2- 2 i 0.8408(4) 0.4341(4) 0.4878(4) . 1. 0
C1 C4+ 2 i 0.1435(5) 0.0007(5) 0.7185(4) . 1. 0
C2 C4+ 2 i 0.2458(4) 0.8692(4) -.0050(4) . 1. 0
C3 C4+ 2 i 0.4961(5) 0.6634(4) 0.2834(4) . 1. 0
C4 C4+ 2 i 0.2348(5) 0.4001(4) 0.0988(4) . 1. 0
H1 H1+ 2 i 0.493(5) -.095(5) 0.219(5) 1.(1) 1. 0
H2 H1+ 2 i 0.607(7) -.022(7) 0.195(7) 4.(2) 1. 0
H3 H1+ 2 i 0.510(6) 0.586(6) 0.647(5) 1.(1) 1. 0
H4 H1+ 2 i 0.545(8) 0.654(8) 0.540(7) 5.(2) 1. 0
H5 H1+ 2 i 0.084(8) 0.135(8) 0.352(8) 5.(2) 1. 0
H6 H1+ 2 i 0.158(8) 0.129(8) 0.461(8) 6.(2) 1. 0
H7 H1+ 2 i 0.82(1) 0.74(1) 0.22(1) 13.(4) 1. 0
H8 H1+ 2 i 0.820(8) 0.555(8) 0.237(7) 5.(2) 1. 0
H9 H1+ 2 i 0.856(7) 0.128(7) 0.571(7) 3.(2) 1. 0
H10 H1+ 2 i 0.80(1) 0.24(1) 0.72(1) 10.(3) 1. 0
H11 H1+ 2 i 0.768(8) 0.477(8) 0.515(8) 6.(2) 1. 0
H12 H1+ 2 i 0.84(1) 0.35(1) 0.41(1) 11.(3) 1. 0
loop_
_atom_site_aniso_label
_atom_site_aniso_type_symbol
_atom_site_aniso_B_11
_atom_site_aniso_B_22
_atom_site_aniso_B_33
_atom_site_aniso_B_12
_atom_site_aniso_B_13
_atom_site_aniso_B_23
Ru1 Ru2+ 1.21(1) 0.825(9) 1.082(9) 0.210(8) -.405(8) 0.280(7)
Ru2 Ru2+ 1.20(1) 0.782(9) 0.919(9) 0.233(9) -.405(7) 0.302(7)
Na1 Na1+ 3.02(7) 2.32(6) 2.36(5) -.19(5) -1.24(5) 1.16(4)
Na2 Na1+ 4.6(1) 1.75(9) 1.96(8) 0.17(9) -1.21(8) 0.33(7)
Na3 Na1+ 3.77(8) 3.89(8) 3.56(7) 0.23(7) -1.62(6) 1.32(6)
Na4 Na1+ 3.7(2) 5.0(2) 3.2(1) 0.9(1) -1.6(1) 1.4(1)
O1 O2- 2.6(1) 1.9(1) 1.56(9) -.3(1) -.59(8) 0.70(8)
O2 O2- 1.8(1) 1.4(1) 2.3(1) 0.47(8) -.89(8) 0.38(7)
O3 O2- 2.5(1) 1.9(1) 1.49(9) -.19(9) -.59(8) 0.51(8)
O4 O2- 1.8(1) 1.2(1) 2.5(1) 0.37(8) -1.05(8) 0.43(7)
O5 O2- 3.1(1) 3.3(1) 1.6(1) -.4(1) -.42(9) 1.18(8)
O6 O2- 2.0(1) 1.7(1) 3.2(1) 0.16(9) -1.26(8) 1.12(8)
O7 O2- 2.4(1) 1.5(1) 1.32(9) 0.56(9) -.64(8) 0.33(7)
O8 O2- 2.6(1) 1.36(9) 1.38(8) 0.41(9) -.82(7) 0.48(7)
O9 O2- 1.7(1) 1.50(1) 1.89(9) 0.18(8) -.58(7) 0.80(7)
O10 O2- 1.8(1) 1.40(9) 1.88(9) 0.10(8) -.68(7) 0.67(7)
O11 O2- 4.9(1) 1.8(1) 1.72(9) 0.3(1) -1.80(9) 0.04(8)
O12 O2- 1.5(1) 1.6(1) 2.2(1) 0.02(9) -.18(8) 0.56(8)
O13 O2- 2.9(1) 1.9(1) 2.5(1) -.3(1) -1.12(9) 0.79(8)
O14 O2- 3.7(1) 3.1(1) 2.5(1) -.6(1) -1.47(9) 1.53(8)
O15 O2- 3.5(1) 4.5(2) 2.5(1) -1. -1. 1.4(1)
O16 O2- 3.5(1) 3.9(1) 3.9(1) -.1(1) -1.7(1) 1.5(1)
O17 O2- 3.5(2) 4.6(2) 3.2(1) 0.3(1) 0.0(1) 0.4(1)
O18 O2- 3.8(1) 3.8(2) 4.5(1) 0.0(1) -1.8(1) 1.1(1)
C1 C4+ 1.7(2) 2.1(1) 2.0(1) 0.1(1) -.5(1) 1.0(1)
C2 C4+ 1.6(1) 1.6(1) 1.2(1) 0.5(1) -.2(1) 0.5(1)
C3 C4+ 2.2(2) 1.5(1) 1.5(1) 0.0(1) -.7(1) 0.6(1)
C4 C4+ 2.1(1) 1.3(1) 1.1(1) 0.3(1) -.7(1) 0.1(1)
#End of TTdata_71938-ICSD