
#(C) 2018 by FIZ Karlsruhe - Leibniz Institute for Information Infrastructure.  All rights reserved.
data_163652-ICSD
_database_code_ICSD 163652
_audit_creation_date 2009-08-01
_chemical_name_systematic 'Dilithium tetramethylplatinum -  diethylether (1/2)'
_chemical_formula_structural '(Li2 (Pt (C H3)4)) ((C2 H5)2 O)2'
_chemical_formula_sum 'C12 H32 Li2 O2 Pt1'
_exptl_crystal_density_diffrn 1.64
_cell_measurement_temperature 183.
_publ_section_title
'Ungewoehnliche Molekuelstrukturen fuer Platin(II)-at-Komplexe'
loop_
_citation_id
_citation_journal_full
_citation_year
_citation_journal_volume
_citation_page_first
_citation_page_last
_citation_journal_id_ASTM
primary 'Zeitschrift fuer Anorganische und Allgemeine Chemie (1950) (DE)' 1999
625 1904 1907 ZAACAB
loop_
_publ_author_name
'Wyrwa, R.'
'Goerls, H.'
_cell_length_a 14.8564(5)
_cell_length_b 14.3705(6)
_cell_length_c 15.8683(6)
_cell_angle_alpha 90.
_cell_angle_beta 90.
_cell_angle_gamma 90.
_cell_volume 3387.79
_cell_formula_units_Z 8
_symmetry_space_group_name_H-M 'P b c a'
_symmetry_Int_Tables_number 61
_refine_ls_R_factor_all 0.0294
loop_
_symmetry_equiv_pos_site_id
_symmetry_equiv_pos_as_xyz
1 'x+1/2, y, -z+1/2'
2 'x, -y+1/2, z+1/2'
3 '-x+1/2, y+1/2, z'
4 '-x, -y, -z'
5 '-x+1/2, -y, z+1/2'
6 '-x, y+1/2, -z+1/2'
7 'x+1/2, -y+1/2, -z'
8 'x, y, z'
loop_
_atom_type_symbol
_atom_type_oxidation_number
Pt2+ 2
C4- -4
H1+ 1
C4- -4
H1+ 1
C4- -4
H1+ 1
C4- -4
H1+ 1
Li1+ 1
O0+ 0
C0+ 0
H0+ 0
C0+ 0
H0+ 0
C0+ 0
H0+ 0
C0+ 0
H0+ 0
Li1+ 1
O0+ 0
C0+ 0
H0+ 0
C0+ 0
H0+ 0
C0+ 0
H0+ 0
C0+ 0
H0+ 0
loop_
_atom_site_label
_atom_site_type_symbol
_atom_site_symmetry_multiplicity
_atom_site_Wyckoff_symbol
_atom_site_fract_x
_atom_site_fract_y
_atom_site_fract_z
_atom_site_B_iso_or_equiv
_atom_site_occupancy
_atom_site_attached_hydrogens
Pt1 Pt2+ 8 c 0.01250(2) 0.927207(15) 0.417594(14) 0.04081(14) 1 0
C1 C4- 8 c 0.1189(5) 1.0048(5) 0.3631(4) 0.058(2) 1 0
H1 H1+ 8 c 0.0981(10) 1.0681(11) 0.3509(27) 0.087 1 0
H2 H1+ 8 c 0.1382(22) 0.9748(19) 0.3106(16) 0.087 1 0
H3 H1+ 8 c 0.1696(13) 1.0073(28) 0.4025(13) 0.087 1 0
C2 C4- 8 c -0.0795(5) 0.9952(5) 0.3377(4) 0.059(2) 1 0
H4 H1+ 8 c -0.1280(18) 0.9522(12) 0.3224(25) 0.088 1 0
H5 H1+ 8 c -0.0484(9) 1.0159(30) 0.2866(14) 0.088 1 0
H6 H1+ 8 c -0.1050(25) 1.0493(20) 0.3669(12) 0.088 1 0
C3 C4- 8 c -0.0896(5) 0.8328(4) 0.4538(4) 0.053(2) 1 0
H7 H1+ 8 c -0.1028(21) 0.8408(22) 0.5138(8) 0.08 1 0
H8 H1+ 8 c -0.0691(12) 0.7690(4) 0.4435(26) 0.08 1 0
H9 H1+ 8 c -0.1441(10) 0.8450(20) 0.4208(20) 0.08 1 0
C4 C4- 8 c 0.1097(4) 0.8419(4) 0.4786(4) 0.057(2) 1 0
H10 H1+ 8 c 0.0999(20) 0.8436(26) 0.5397(5) 0.085 1 0
H11 H1+ 8 c 0.1703(5) 0.8650(20) 0.4659(24) 0.085 1 0
H12 H1+ 8 c 0.1039(21) 0.7777(8) 0.4585(22) 0.085 1 0
Li1 Li1+ 8 c 0.1354(7) 1.0043(7) 0.5173(7) 0.051(2) 1 0
O1 O0+ 8 c 0.2720(3) 1.0101(4) 0.5297(4) 0.0774(15) 1 0
C5 C0+ 8 c 0.3234(9) 0.9248(8) 0.5584(8) 0.116(4) 1 0
H13 H0+ 8 c 0.2870(9) 0.8683(8) 0.5480(8) 0.14 1 0
H14 H0+ 8 c 0.3801(9) 0.9193(8) 0.5261(8) 0.14 1 0
C6 C0+ 8 c 0.3415(11) 0.9317(12) 0.6388(7) 0.166(7) 1 0
H15 H0+ 8 c 0.3742(11) 0.8762(12) 0.6573(7) 0.249 1 0
H16 H0+ 8 c 0.2852(11) 0.9371(12) 0.6706(7) 0.249 1 0
H17 H0+ 8 c 0.3786(11) 0.9870(12) 0.6486(7) 0.249 1 0
C7 C0+ 8 c 0.3234(5) 1.0888(6) 0.4997(5) 0.069(2) 1 0
H18 H0+ 8 c 0.2810(5) 1.1382(6) 0.4821(5) 0.083 1 0
H19 H0+ 8 c 0.3596(5) 1.1135(6) 0.5471(5) 0.083 1 0
C8 C0+ 8 c 0.3826(8) 1.0687(6) 0.4307(7) 0.094(3) 1 0
H20 H0+ 8 c 0.4148(8) 1.1254(6) 0.4144(7) 0.142 1 0
H21 H0+ 8 c 0.3474(8) 1.0459(6) 0.3827(7) 0.142 1 0
H22 H0+ 8 c 0.4261(8) 1.0210(6) 0.4478(7) 0.142 1 0
Li2 Li1+ 8 c -0.0058(7) 0.8889(8) 0.5804(6) 0.046(3) 1 0
O2 O0+ 8 c -0.0086(3) 0.7760(3) 0.6594(3) 0.0479(10) 1 0
C9 C0+ 8 c -0.0541(5) 0.6901(4) 0.6406(5) 0.059(2) 1 0
H23 H0+ 8 c -0.0221(5) 0.6378(4) 0.6680(5) 0.071 1 0
H24 H0+ 8 c -0.0535(5) 0.6794(4) 0.5790(5) 0.071 1 0
C10 C0+ 8 c -0.1491(5) 0.6935(6) 0.6714(6) 0.078(2) 1 0
H25 H0+ 8 c -0.1793(5) 0.6347(6) 0.6579(6) 0.118 1 0
H26 H0+ 8 c -0.1808(5) 0.7450(6) 0.6438(6) 0.118 1 0
H27 H0+ 8 c -0.1495(5) 0.7030(6) 0.7325(6) 0.118 1 0
C11 C0+ 8 c 0.0343(5) 0.7742(5) 0.7408(4) 0.061(2) 1 0
H28 H0+ 8 c -0.0003(5) 0.7333(5) 0.7791(4) 0.073 1 0
H29 H0+ 8 c 0.0340(5) 0.8377(5) 0.7650(4) 0.073 1 0
C12 C0+ 8 c 0.1289(5) 0.7401(6) 0.7354(5) 0.085(2) 1 0
H30 H0+ 8 c 0.1558(5) 0.7397(6) 0.7918(5) 0.127 1 0
H31 H0+ 8 c 0.1638(5) 0.7812(6) 0.6985(5) 0.127 1 0
H32 H0+ 8 c 0.1294(5) 0.6768(6) 0.7124(5) 0.127 1 0
loop_
_atom_site_aniso_label
_atom_site_aniso_type_symbol
_atom_site_aniso_U_11
_atom_site_aniso_U_22
_atom_site_aniso_U_33
_atom_site_aniso_U_12
_atom_site_aniso_U_13
_atom_site_aniso_U_23
Pt1 Pt2+ 0.0600(2) 0.0306(2) 0.0318(2) 0.00073(9) 0.00303(9) -0.00269(9)
C1 C4- 0.078(4) 0.052(4) 0.045(3) 0.008(3) 0.021(3) 0.004(3)
C2 C4- 0.087(5) 0.049(4) 0.041(3) -0.011(4) -0.009(3) 0.002(3)
C3 C4- 0.075(4) 0.041(3) 0.043(3) -0.003(3) -0.008(3) -0.003(3)
C4 C4- 0.066(4) 0.037(3) 0.067(4) 0.006(3) 0.011(3) 0.001(3)
Li1 Li1+ 0.057(6) 0.039(6) 0.057(6) -0.002(5) 0.004(5) 0.006(5)
O1 O0+ 0.058(3) 0.077(4) 0.098(3) -0.003(2) -0.007(3) 0.046(3)
C5 C0+ 0.114(9) 0.110(9) 0.124(9) 0.010(6) 0.018(8) 0.030(7)
C6 C0+ 0.144(12) 0.294(22) 0.061(6) 0.037(11) -0.003(7) -0.021(9)
C7 C0+ 0.066(4) 0.070(5) 0.071(5) -0.019(4) -0.003(4) 0.016(4)
C8 C0+ 0.099(7) 0.065(6) 0.119(8) -0.007(4) 0.042(6) 0.009(5)
Li2 Li1+ 0.054(6) 0.043(7) 0.042(6) 0.001(4) 0.004(4) 0.007(4)
O2 O0+ 0.062(3) 0.041(2) 0.040(2) -0.006(2) -0.007(2) 0.009(2)
C9 C0+ 0.069(4) 0.040(4) 0.069(4) -0.003(3) -0.004(4) 0.002(3)
C10 C0+ 0.066(4) 0.070(5) 0.100(6) -0.006(4) 0.004(4) 0.019(5)
C11 C0+ 0.077(4) 0.063(4) 0.042(3) 0.002(4) 0.000(3) 0.011(3)
C12 C0+ 0.076(5) 0.100(6) 0.078(5) 0.006(4) -0.020(4) 0.027(5)
#End of TTdata_163652-ICSD