
#(C) 2018 by FIZ Karlsruhe - Leibniz Institute for Information Infrastructure.  All rights reserved.
data_243497-ICSD
_database_code_ICSD 243497
_audit_creation_date 2017-08-01
_chemical_name_systematic 'Lithium manganese tris(formate)'
_chemical_formula_structural 'Li Mn (H C O2)3'
_chemical_formula_sum 'C3 H3 Li1 Mn1 O6'
_exptl_crystal_density_diffrn 1.95
_cell_measurement_temperature 150.
_publ_section_title

;
Transition-mtal dependent cation disorder in the chiral cubic AB(HCO2)3
metal-organic frameworks (A = Li or Na, B = Mn or Co)
;
loop_
_citation_id
_citation_journal_full
_citation_year
_citation_journal_volume
_citation_page_first
_citation_page_last
_citation_journal_id_ASTM
primary 'Zeitschrift fuer Anorganische und Allgemeine Chemie (1950) (DE)' 2017
643 287 293 ZAACAB
loop_
_publ_author_name
'Aston, James C.'
'Saines, Paul J.'
_cell_length_a 8.75973(19)
_cell_length_b 8.75973(19)
_cell_length_c 8.75973(19)
_cell_angle_alpha 90
_cell_angle_beta 90
_cell_angle_gamma 90
_cell_volume 672.15
_cell_formula_units_Z 4
_symmetry_space_group_name_H-M 'P 21 3'
_symmetry_Int_Tables_number 198
_refine_ls_R_factor_all 0.0303
loop_
_symmetry_equiv_pos_site_id
_symmetry_equiv_pos_as_xyz
1 '-z+1/2, -x, y+1/2'
2 '-y+1/2, -z, x+1/2'
3 '-x+1/2, -y, z+1/2'
4 '-z, x+1/2, -y+1/2'
5 '-y, z+1/2, -x+1/2'
6 '-x, y+1/2, -z+1/2'
7 'z+1/2, -x+1/2, -y'
8 'y+1/2, -z+1/2, -x'
9 'x+1/2, -y+1/2, -z'
10 'z, x, y'
11 'y, z, x'
12 'x, y, z'
loop_
_atom_type_symbol
_atom_type_oxidation_number
Mn2+ 2
O2- -2
C2+ 2
H1+ 1
Li1+ 1
loop_
_atom_site_label
_atom_site_type_symbol
_atom_site_symmetry_multiplicity
_atom_site_Wyckoff_symbol
_atom_site_fract_x
_atom_site_fract_y
_atom_site_fract_z
_atom_site_B_iso_or_equiv
_atom_site_occupancy
_atom_site_attached_hydrogens
Mn1 Mn2+ 4 a -0.64176(6) -0.85824(6) -0.14176(6) 0.0076(3) 1 0
O1 O2- 12 b -0.5760(3) -0.6271(3) -0.2050(3) 0.0125(6) 1 0
O2 O2- 12 b -0.7035(3) -1.0979(3) -0.1086(3) 0.0129(6) 1 0
C1 C2+ 12 b -0.6499(5) -0.5097(4) -0.2361(4) 0.0117(8) 1 0
H1 H1+ 12 b -0.7533 -0.5101 -0.2122 0.014 1 0
Li1 Li1+ 4 a -0.3326(8) -0.6674(8) -0.1674(8) 0.010(2) 1 0
loop_
_atom_site_aniso_label
_atom_site_aniso_type_symbol
_atom_site_aniso_U_11
_atom_site_aniso_U_22
_atom_site_aniso_U_33
_atom_site_aniso_U_12
_atom_site_aniso_U_13
_atom_site_aniso_U_23
Mn1 Mn2+ 0.0076(3) 0.0076(3) 0.0076(3) -0.0004(2) 0.0004(2) -0.0004(2)
O1 O2- 0.0142(12) 0.0053(12) 0.0179(13) -0.0018(11) 0.0019(11) 0.0032(12)
O2 O2- 0.0187(13) 0.0087(11) 0.0112(13) -0.0021(11) 0.0038(11) 0.0020(9)
C1 C2+ 0.0083(17) 0.0098(17) 0.0171(18) 0.0007(17) 0.0018(15) 0.0013(15)
Li1 Li1+ 0.010(2) 0.010(2) 0.010(2) -0.004(3) -0.004(3) 0.004(3)
#End of TTdata_243497-ICSD