
#(C) 2018 by FIZ Karlsruhe - Leibniz Institute for Information Infrastructure.  All rights reserved.
data_243499-ICSD
_database_code_ICSD 243499
_audit_creation_date 2017-08-01
_chemical_name_systematic 'Lithium cobalt tris(formate)'
_chemical_formula_structural 'Li Co (H C O2)3'
_chemical_formula_sum 'C3 H3 Co1 Li1 O6'
_exptl_crystal_density_diffrn 2.1
_cell_measurement_temperature 150.
_publ_section_title

;
Transition-mtal dependent cation disorder in the chiral cubic AB(HCO2)3
metal-organic frameworks (A = Li or Na, B = Mn or Co)
;
loop_
_citation_id
_citation_journal_full
_citation_year
_citation_journal_volume
_citation_page_first
_citation_page_last
_citation_journal_id_ASTM
primary 'Zeitschrift fuer Anorganische und Allgemeine Chemie (1950) (DE)' 2017
643 287 293 ZAACAB
loop_
_publ_author_name
'Aston, James C.'
'Saines, Paul J.'
_cell_length_a 8.5997(3)
_cell_length_b 8.5997(3)
_cell_length_c 8.5997(3)
_cell_angle_alpha 90
_cell_angle_beta 90
_cell_angle_gamma 90
_cell_volume 635.98
_cell_formula_units_Z 4
_symmetry_space_group_name_H-M 'P 21 3'
_symmetry_Int_Tables_number 198
_refine_ls_R_factor_all 0.0421
loop_
_symmetry_equiv_pos_site_id
_symmetry_equiv_pos_as_xyz
1 '-z+1/2, -x, y+1/2'
2 '-y+1/2, -z, x+1/2'
3 '-x+1/2, -y, z+1/2'
4 '-z, x+1/2, -y+1/2'
5 '-y, z+1/2, -x+1/2'
6 '-x, y+1/2, -z+1/2'
7 'z+1/2, -x+1/2, -y'
8 'y+1/2, -z+1/2, -x'
9 'x+1/2, -y+1/2, -z'
10 'z, x, y'
11 'y, z, x'
12 'x, y, z'
loop_
_atom_type_symbol
_atom_type_oxidation_number
Co2+ 2
Li1+ 1
O2- -2
C2+ 2
H1+ 1
Co2+ 2
Li1+ 1
loop_
_atom_site_label
_atom_site_type_symbol
_atom_site_symmetry_multiplicity
_atom_site_Wyckoff_symbol
_atom_site_fract_x
_atom_site_fract_y
_atom_site_fract_z
_atom_site_B_iso_or_equiv
_atom_site_occupancy
_atom_site_attached_hydrogens
Co1 Co2+ 4 a 0.4081(6) 0.5919(6) 0.0919(6) 0.032(3) 0.135(6) 0
Li1 Li1+ 4 a 0.4081(6) 0.5919(6) 0.0919(6) 0.032(3) 0.865(6) 0
O1 O2- 12 b 0.4484(5) 0.3573(4) 0.1575(4) 0.0144(9) 1 0
O2 O2- 12 b 0.3808(4) 0.8265(4) 0.0480(4) 0.0143(9) 1 0
C1 C2+ 12 b 0.2619(6) 0.8985(7) 0.0095(6) 0.0140(12) 1 0
H1 H1+ 12 b 0.2615 1.005 0.028 0.017 1 0
Co2 Co2+ 4 a 0.39240(8) 0.39240(8) 0.39240(8) 0.0061(4) 0.865(6) 0
Li2 Li1+ 4 a 0.39240(8) 0.39240(8) 0.39240(8) 0.0061(4) 0.135(6) 0
loop_
_atom_site_aniso_label
_atom_site_aniso_type_symbol
_atom_site_aniso_U_11
_atom_site_aniso_U_22
_atom_site_aniso_U_33
_atom_site_aniso_U_12
_atom_site_aniso_U_13
_atom_site_aniso_U_23
Co1 Co2+ 0.032(3) 0.032(3) 0.032(3) -0.008(2) -0.008(2) 0.008(2)
Li1 Li1+ 0.032(3) 0.032(3) 0.032(3) -0.008(2) -0.008(2) 0.008(2)
O1 O2- 0.0174(19) 0.012(2) 0.0142(19) 0.0021(15) -0.0002(15) 0.0009(14)
O2 O2- 0.0098(18) 0.0152(18) 0.0180(18) -0.0018(16) -0.0047(17) -0.0003(16)
C1 C2+ 0.014(3) 0.009(2) 0.019(3) -0.002(2) 0.001(2) 0.000(2)
Co2 Co2+ 0.0061(4) 0.0061(4) 0.0061(4) 0.0011(3) 0.0011(3) 0.0011(3)
Li2 Li1+ 0.0061(4) 0.0061(4) 0.0061(4) 0.0011(3) 0.0011(3) 0.0011(3)
#End of TTdata_243499-ICSD