
#(C) 2018 by FIZ Karlsruhe - Leibniz Institute for Information Infrastructure.  All rights reserved.
data_246787-ICSD
_database_code_ICSD 246787
_audit_creation_date 2010-02-01
_chemical_name_systematic 'Lithium deuterium oxalate dideuteriohydrate'
_chemical_formula_structural 'Li D (C2 O4) (D2 O)'
_chemical_formula_sum 'C2 D3 Li1 O5'
_chemical_name_structure_type LiHC2O4H2O
_exptl_crystal_density_diffrn 1.9
_cell_measurement_temperature 293.
_publ_section_title

;
Hydrogen bond studies. LXI.* An X-ray diffraction study of the isotope effect
in lithium hydrogen oxalate monohydrate, Li H C2 O4 * H2O
;
loop_
_citation_id
_citation_journal_full
_citation_year
_citation_journal_volume
_citation_page_first
_citation_page_last
_citation_journal_id_ASTM
primary

;
Acta Crystallographica, Section B: Structural Crystallography and Crystal
Chemistry
; 1972 28 2037 2045 ACBCAR
loop_
_publ_author_name
'Thomas, J.O.'
_cell_length_a 5.055(1)
_cell_length_b 6.138(1)
_cell_length_c 3.410(1)
_cell_angle_alpha 95.05(1)
_cell_angle_beta 98.62(1)
_cell_angle_gamma 78.57(1)
_cell_volume 102.35
_cell_formula_units_Z 1
_symmetry_space_group_name_H-M 'P 1'
_symmetry_Int_Tables_number 1
_refine_ls_R_factor_all 0.026
loop_
_symmetry_equiv_pos_site_id
_symmetry_equiv_pos_as_xyz
1 'x, y, z'
loop_
_atom_type_symbol
_atom_type_oxidation_number
Li1+ 1
O2- -2
C3+ 3
O2- -2
D1+ 1
loop_
_atom_site_label
_atom_site_type_symbol
_atom_site_symmetry_multiplicity
_atom_site_Wyckoff_symbol
_atom_site_fract_x
_atom_site_fract_y
_atom_site_fract_z
_atom_site_B_iso_or_equiv
_atom_site_occupancy
_atom_site_attached_hydrogens
Li1 Li1+ 1 a 0.86672(39) 0.69927(32) 0.91167(56) . 1. 0
O1 O2- 1 a 0 0 0 . 1. 0
O2 O2- 1 a -0.18893(18) 0.34112(14) -0.20873(31) . 1. 0
O3 O2- 1 a 0.21258(18) 0.51142(13) 0.16615(28) . 1. 0
O4 O2- 1 a 0.41818(18) 0.18557(15) 0.41431(31) . 1. 0
C1 C3+ 1 a -0.00014(21) 0.19617(15) -0.01382(31) . 1. 0
C2 C3+ 1 a 0.23151(20) 0.31001(15) 0.20678(31) . 1. 0
O5 O2- 1 a 0.63473(20) 0.74671(15) 0.36650(31) . 1. 0
D1 D1+ 1 a 0.690(5) 0.278(5) 0.662(10) 3.8(5) 1. 0
D2 D1+ 1 a 0.527(5) 0.661(4) 0.347(8) 2.5(4) 1. 0
D3 D1+ 1 a 0.545(5) 0.875(4) 0.360(8) 2.3(3) 1. 0
loop_
_atom_site_aniso_label
_atom_site_aniso_type_symbol
_atom_site_aniso_U_11
_atom_site_aniso_U_22
_atom_site_aniso_U_33
_atom_site_aniso_U_12
_atom_site_aniso_U_13
_atom_site_aniso_U_23
Li1 Li1+ 0.0164(5) 0.0112(4) 0.0418(12) -0.0015(4) -0.0043(6) 0.0046(5)
O1 O2- 0.0202(2) 0.0077(1) 0.0523(5) -0.0058(1) -0.0065(3) 0.0039(2)
O2 O2- 0.0123(2) 0.0087(1) 0.0456(5) -0.0028(1) -0.0110(2) 0.0042(2)
O3 O2- 0.0137(2) 0.0069(1) 0.0547(5) -0.0039(1) -0.0074(2) 0.0037(2)
O4 O2- 0.0129(2) 0.0084(1) 0.0465(5) -0.0014(1) -0.0123(2) 0.0026(2)
C1 C3+ 0.0098(2) 0.0074(1) 0.0253(4) -0.0028(1) -0.0028(2) 0.0016(2)
C2 C3+ 0.0084(2) 0.0066(1) 0.0283(4) -0.0019(1) -0.0028(2) 0.0008(2)
O5 O2- 0.0146(2) 0.0071(1) 0.0440(4) -0.0024(1) -0.0023(2) 0.0016(2)
#End of TTdata_246787-ICSD