
#(C) 2017 by FIZ Karlsruhe - Leibniz Institute for Information Infrastructure.  All rights reserved.
data_248317-ICSD
_database_code_ICSD 248317
_audit_creation_date 2014-08-01
_chemical_name_systematic
'catena-Poly[[(N,N-dimethylcyanamide-kappa N)lithium]-mue3-bromido]'
_chemical_formula_structural '(Li Br ((C H3)2 N C N))'
_chemical_formula_sum 'C3 H6 Br1 Li1 N2'
_exptl_crystal_density_diffrn 1.61
_cell_measurement_temperature 200.
_publ_section_title
'catena-Poly[[(N,N-diÐmethylÐcyanamide-kappa N)lithium]-mue3-bromido]'
loop_
_citation_id
_citation_journal_full
_citation_year
_citation_journal_volume
_citation_page_first
_citation_page_last
_citation_journal_id_ASTM
primary 'Acta Crystallographica, Section E. Structure Reports Online' 2014 70
m69 m70 ACSEBH
loop_
_publ_author_name
'Q. Xie'
'H. Tong'
'M. Zhou'
_cell_length_a 4.2680(8)
_cell_length_b 17.214(3)
_cell_length_c 8.9685(17)
_cell_angle_alpha 90.
_cell_angle_beta 100.089(3)
_cell_angle_gamma 90.
_cell_volume 648.72
_cell_formula_units_Z 4
_symmetry_space_group_name_H-M 'P 1 21/c 1'
_symmetry_Int_Tables_number 14
_refine_ls_R_factor_all 0.0247
loop_
_symmetry_equiv_pos_site_id
_symmetry_equiv_pos_as_xyz
1 'x, -y+1/2, z+1/2'
2 '-x, -y, -z'
3 '-x, y+1/2, -z+1/2'
4 'x, y, z'
loop_
_atom_type_symbol
_atom_type_oxidation_number
Li1+ 1
Br1- -1
N3- -3
C4+ 4
C2- -2
H1+ 1
C2- -2
H1+ 1
loop_
_atom_site_label
_atom_site_type_symbol
_atom_site_symmetry_multiplicity
_atom_site_Wyckoff_symbol
_atom_site_fract_x
_atom_site_fract_y
_atom_site_fract_z
_atom_site_B_iso_or_equiv
_atom_site_occupancy
_atom_site_attached_hydrogens
Li1 Li1+ 4 e 0.2655(11) 0.4372(3) 0.0594(6) 0.0289(11) 1 0
Br1 Br1- 4 e 0.81425(7) 0.485193(18) 0.18525(3) 0.03230(16) 1 0
N1 N3- 4 e 0.2914(7) 0.32132(16) 0.0517(3) 0.0475(8) 1 0
N2 N3- 4 e 0.5102(8) 0.18972(16) 0.0853(3) 0.0509(8) 1 0
C1 C4+ 4 e 0.3896(8) 0.25987(19) 0.0667(4) 0.0352(8) 1 0
C2 C2- 4 e 0.3986(11) 0.1281(2) -0.0201(5) 0.0672(12) 1 0
H1 H1+ 4 e 0.2384 0.1487 -0.1023 0.101 1 0
H2 H1+ 4 e 0.3037 0.0868 0.0327 0.101 1 0
H3 H1+ 4 e 0.5779 0.107 -0.0621 0.101 1 0
C3 C2- 4 e 0.7254(9) 0.1720(2) 0.2260(5) 0.0581(11) 1 0
H4 H1+ 4 e 0.7997 0.2206 0.2775 0.087 1 0
H5 H1+ 4 e 0.9081 0.1426 0.2035 0.087 1 0
H6 H1+ 4 e 0.613 0.141 0.2916 0.087 1 0
loop_
_atom_site_aniso_label
_atom_site_aniso_type_symbol
_atom_site_aniso_U_11
_atom_site_aniso_U_22
_atom_site_aniso_U_33
_atom_site_aniso_U_12
_atom_site_aniso_U_13
_atom_site_aniso_U_23
Li1 Li1+ 0.025(3) 0.022(3) 0.038(3) 0.0034(19) 0.001(2) 0.004(2)
Br1 Br1- 0.0248(2) 0.0371(2) 0.0339(2) 0.00073(13) 0.00223(13) 0.00497(14)
N1 N3- 0.052(2) 0.0287(17) 0.057(2) 0.0056(14) -0.0034(15) 0.0025(14)
N2 N3- 0.068(2) 0.0252(16) 0.053(2) 0.0129(14) -0.0071(16) -0.0022(14)
C1 C4+ 0.035(2) 0.032(2) 0.0363(19) -0.0027(15) -0.0003(14) -0.0015(14)
C2 C2- 0.108(4) 0.036(2) 0.062(3) -0.003(2) 0.027(2) -0.0161(19)
C3 C2- 0.050(2) 0.058(3) 0.065(3) 0.0178(19) 0.003(2) 0.019(2)
#End of TTdata_248317-ICSD