
#(C) 2018 by FIZ Karlsruhe - Leibniz Institute for Information Infrastructure.  All rights reserved.
data_261906-ICSD
_database_code_ICSD 261906
_audit_creation_date 2012-02-01
_chemical_name_systematic 'Lithium hydroxomethylphosphonate'
_chemical_formula_structural 'Li ((C H3) P O3 H)'
_chemical_formula_sum 'C1 H4 Li1 O3 P1'
_exptl_crystal_density_diffrn 1.7
_cell_measurement_temperature 85.
_publ_section_title

;
Charge-density distribution in hydrogen methylphosphonates of calcium and
lithium
;
loop_
_citation_id
_citation_journal_full
_citation_year
_citation_journal_volume
_citation_page_first
_citation_page_last
_citation_journal_id_ASTM
primary 'Acta Crystallographica, Section B: Structural Science' 2011 67 399 408
ASBSDK
loop_
_publ_author_name
'Mermer, A.'
'Starynowicz, P.'
_cell_length_a 9.267(5)
_cell_length_b 4.604(2)
_cell_length_c 9.384(3)
_cell_angle_alpha 90
_cell_angle_beta 96.12(4)
_cell_angle_gamma 90
_cell_volume 398.09
_cell_formula_units_Z 4
_symmetry_space_group_name_H-M 'P 1 21/c 1'
_symmetry_Int_Tables_number 14
_refine_ls_R_factor_all 0.015
loop_
_symmetry_equiv_pos_site_id
_symmetry_equiv_pos_as_xyz
1 'x, -y+1/2, z+1/2'
2 '-x, -y, -z'
3 '-x, y+1/2, -z+1/2'
4 'x, y, z'
loop_
_atom_type_symbol
_atom_type_oxidation_number
P5+ 5
O2- -2
C2+ 2
Li1+ 1
H1- -1
H1+ 1
loop_
_atom_site_label
_atom_site_type_symbol
_atom_site_symmetry_multiplicity
_atom_site_Wyckoff_symbol
_atom_site_fract_x
_atom_site_fract_y
_atom_site_fract_z
_atom_site_B_iso_or_equiv
_atom_site_occupancy
_atom_site_attached_hydrogens
P1 P5+ 4 e 0.702565(6) 0.100820(11) 0.925332(5) 0.006 1 0
O1 O2- 4 e 0.75694(3) -0.11478(5) 1.05052(2) 0.011 1 0
O2 O2- 4 e 0.640403(19) 0.36966(3) 0.990615(18) 0.009 1 0
O3 O2- 4 e 0.596249(19) -0.05190(4) 0.817823(18) 0.009 1 0
C1 C2+ 4 e 0.86195(3) 0.20363(6) 0.84614(3) 0.014 1 0
Li1 Li1+ 4 e 0.50745(6) 0.10053(10) 0.64061(5) 0.011 1 0
H1 H1- 4 e 0.908304 0.016652 0.796195 0.04 1 0
H2 H1- 4 e 0.827395 0.364978 0.764563 0.036 1 0
H3 H1- 4 e 0.942114 0.282895 0.930629 0.037 1 0
H4 H1+ 4 e 0.723309 -0.3097 1.010264 0.024 1 0
loop_
_atom_site_aniso_label
_atom_site_aniso_type_symbol
_atom_site_aniso_U_11
_atom_site_aniso_U_22
_atom_site_aniso_U_33
_atom_site_aniso_U_12
_atom_site_aniso_U_13
_atom_site_aniso_U_23
P1 P5+ 0.007178(17) 0.005580(16) 0.006224(16) 0.000047(11) -0.00002(1)
0.000142(12)
O1 O2- 0.01440(7) 0.00730(5) 0.00980(6) -0.00054(5) -0.00388(5) 0.00160(5)
O2 O2- 0.01101(5) 0.00643(4) 0.00896(5) 0.00075(4) 0.00099(4) -0.00068(4)
O3 O2- 0.01048(5) 0.00781(4) 0.00739(4) -0.00103(4) -0.00151(4) 0.00004(4)
C1 C2+ 0.00988(7) 0.01817(9) 0.01472(8) -0.00118(6) 0.00338(6) 0.00179(7)
Li1 Li1+ 0.01262(17) 0.01022(16) 0.00910(15) 0.00056(13) -0.00011(13)
0.00009(12)
H1 H1- 0.034295 0.038506 0.05078 0.005678 0.020632 -0.01019
H2 H1- 0.031855 0.043255 0.034146 -0.000435 0.006529 0.019282
H3 H1- 0.022728 0.053814 0.033546 -0.012673 -0.00312 -0.002958
H4 H1+ 0.033559 0.012588 0.024381 -0.001819 -0.006757 0.000199
#End of TTdata_261906-ICSD