
#(C) 2017 by FIZ Karlsruhe - Leibniz Institute for Information Infrastructure.  All rights reserved.
data_151064-ICSD
_database_code_ICSD 151064
_audit_creation_date 2006-04-01
_audit_update_record 2008-08-01
_chemical_name_systematic 'Bis(1,2-dimethoxyethane) lithium bromide'
_chemical_formula_structural '(C2 H4 (C H3 O)2)2 Li Br'
_chemical_formula_sum 'C8 H20 Br1 Li1 O4'
_chemical_name_structure_type (C2H4(CH3O)2)2LiCl
_exptl_crystal_density_diffrn 1.4
_cell_measurement_temperature 200.
_publ_section_title

;
Metallderivate von Molekuelverbindungen. IX.
Bis(1,2-dimethoxyethan-O,O')lithium-phosphanid, -arsanid und -chlorid - drei
neue Vertreter des Bis(1,2-dimethoxyethan-O,O')lithium-bromid-Typs
;
loop_
_citation_id
_citation_journal_full
_citation_year
_citation_journal_volume
_citation_page_first
_citation_page_last
_citation_journal_id_ASTM
primary 'Zeitschrift fuer Anorganische und Allgemeine Chemie (1950) (DE)' 1998
624 469 482 ZAACAB
loop_
_publ_author_name
'Becker, G.'
'Eschbach, B.'
'Mundt, O.'
'Reti, M.'
'Niecke, E.'
'Issberner, K.'
'Nieger, M.'
'Thelen, V.'
'Noeth, H.'
'Waldhoer, R.'
'Schmidt, M.'
_cell_length_a 13.190(2)
_cell_length_b 7.941(1)
_cell_length_c 12.143(2)
_cell_angle_alpha 90.
_cell_angle_beta 96.22(1)
_cell_angle_gamma 90.
_cell_volume 1264.39
_cell_formula_units_Z 4
_symmetry_space_group_name_H-M 'C 1 2/c 1'
_symmetry_Int_Tables_number 15
_refine_ls_R_factor_all 0.056
loop_
_symmetry_equiv_pos_site_id
_symmetry_equiv_pos_as_xyz
1 'x, -y, z+1/2'
2 '-x, -y, -z'
3 '-x, y, -z+1/2'
4 'x, y, z'
5 'x+1/2, -y+1/2, z+1/2'
6 '-x+1/2, -y+1/2, -z'
7 '-x+1/2, y+1/2, -z+1/2'
8 'x+1/2, y+1/2, z'
loop_
_atom_type_symbol
_atom_type_oxidation_number
Li1+ 1
Br1- -1
O0+ 0
C0+ 0
H0+ 0
loop_
_atom_site_label
_atom_site_type_symbol
_atom_site_symmetry_multiplicity
_atom_site_Wyckoff_symbol
_atom_site_fract_x
_atom_site_fract_y
_atom_site_fract_z
_atom_site_B_iso_or_equiv
_atom_site_occupancy
_atom_site_attached_hydrogens
Li1 Li1+ 4 e 0 0.0621(12) 0.25 0.018(2) 1. 0
Br1 Br1- 4 e 0 -0.26072(7) 0.25 0.0262(3) 1. 0
O1 O0+ 8 f -0.0177(2) 0.1852(4) 0.1002(2) 0.0201(6) 1. 0
O2 O0+ 8 f 0.1530(2) 0.0968(3) 0.2259(2) 0.0175(6) 1. 0
C1 C0+ 8 f 0.0792(3) 0.2263(6) 0.0637(3) 0.029(1) 1. 0
C2 C0+ 8 f -0.0910(3) 0.3147(6) 0.0691(3) 0.031(1) 1. 0
C3 C0+ 8 f 0.1541(3) 0.0968(6) 0.1091(3) 0.0277(9) 1. 0
C4 C0+ 8 f 0.2306(3) -0.0093(6) 0.2807(4) 0.0306(9) 1. 0
H1 H0+ 8 f 0.074 0.227 -0.018 0.035 1. 0
H2 H0+ 8 f 0.101 0.34 0.091 0.035 1. 0
H3 H0+ 8 f -0.157 0.283 0.094 0.047 1. 0
H4 H0+ 8 f -0.068 0.421 0.104 0.047 1. 0
H5 H0+ 8 f -0.099 0.328 -0.012 0.047 1. 0
H6 H0+ 8 f 0.223 0.125 0.09 0.033 1. 0
H7 H0+ 8 f 0.135 -0.016 0.078 0.033 1. 0
H8 H0+ 8 f 0.226 -0.007 0.361 0.046 1. 0
H9 H0+ 8 f 0.221 -0.125 0.254 0.046 1. 0
H10 H0+ 8 f 0.298 0.031 0.265 0.046 1. 0
loop_
_atom_site_aniso_label
_atom_site_aniso_type_symbol
_atom_site_aniso_U_11
_atom_site_aniso_U_22
_atom_site_aniso_U_33
_atom_site_aniso_U_12
_atom_site_aniso_U_13
_atom_site_aniso_U_23
Li1 Li1+ 0.025(4) 0.011(5) 0.019(4) 0. 0.000(3) 0.
Br1 Br1- 0.0390(4) 0.0151(4) 0.0242(4) 0. 0.0017(2) 0.
O1 O0+ 0.027(1) 0.013(2) 0.019(1) -0.001(1) -0.001(1) 0.007(1)
O2 O0+ 0.021(1) 0.014(1) 0.017(1) 0.003(1) 0.002(1) 0.001(1)
C1 C0+ 0.035(2) 0.033(3) 0.019(2) -0.012(2) 0.004(2) 0.008(2)
C2 C0+ 0.047(2) 0.017(2) 0.028(2) 0.009(2) -0.004(2) 0.005(2)
C3 C0+ 0.029(2) 0.034(3) 0.021(2) -0.006(2) 0.009(1) -0.007(2)
C4 C0+ 0.025(2) 0.023(2) 0.044(2) 0.006(2) 0.002(2) 0.007(2)
#End of TTdata_151064-ICSD