
#(C) 2018 by FIZ Karlsruhe - Leibniz Institute for Information Infrastructure.  All rights reserved.
data_166450-ICSD
_database_code_ICSD 166450
_audit_creation_date 2010-08-01
_chemical_name_systematic 'Lithium oxonium aquadioxalatodioxouranate hydrate'
_chemical_formula_structural 'Li (H3 O) (U O2 (C2 O4)2 (H2 O)) (H2 O)'
_chemical_formula_sum 'C4 H7 Li1 O13 U1'
_exptl_crystal_density_diffrn 2.57
_cell_measurement_temperature 100.
_publ_section_title

;
Synthesis and X-ray diffraction study of Li (H3 O) (U O2 (C2 O4)2 (H2 O)) *
(H2 O)
;
loop_
_citation_id
_citation_journal_full
_citation_year
_citation_journal_volume
_citation_page_first
_citation_page_last
_citation_journal_id_ASTM
primary 'Zhurnal Neorganicheskoi Khimii' 2009 54 1842 1846 ZNOKAQ
loop_
_publ_author_name
'Shilova, M.Yu.'
'Vologzhanina, A.V.'
'Serezhkina, L.B.'
'Serezhkin, V.N.'
_cell_length_a 7.1682(10)
_cell_length_b 29.639(6)
_cell_length_c 6.6770(12)
_cell_angle_alpha 90.
_cell_angle_beta 112.3(7)
_cell_angle_gamma 90.
_cell_volume 1312.49
_cell_formula_units_Z 4
_symmetry_space_group_name_H-M 'P 1 21/c 1'
_symmetry_Int_Tables_number 14
_refine_ls_R_factor_all 0.0436
loop_
_symmetry_equiv_pos_site_id
_symmetry_equiv_pos_as_xyz
1 'x, -y+1/2, z+1/2'
2 '-x, -y, -z'
3 '-x, y+1/2, -z+1/2'
4 'x, y, z'
loop_
_atom_type_symbol
_atom_type_oxidation_number
U6+ 6
Li1+ 1
O2- -2
C3+ 3
H1+ 1
loop_
_atom_site_label
_atom_site_type_symbol
_atom_site_symmetry_multiplicity
_atom_site_Wyckoff_symbol
_atom_site_fract_x
_atom_site_fract_y
_atom_site_fract_z
_atom_site_B_iso_or_equiv
_atom_site_occupancy
_atom_site_attached_hydrogens
U1 U6+ 4 e 0.3021(1) 0.1595(1) 0.7418(1) 0.008(1) 1. 0
Li1 Li1+ 4 e -0.187(2) 0.1595(6) 0.237(3) 0.011(3) 1. 0
O1 O2- 4 e 0.5056(10) 0.1596(3) 0.9961(10) 0.015(1) 1. 0
O2 O2- 4 e 0.1007(10) 0.1614(3) 0.4848(10) 0.013(1) 1. 0
O3 O2- 4 e 0.0618(10) 0.1534(2) 0.9109(11) 0.010(1) 1. 0
O4 O2- 4 e 0.2255(11) 0.0841(2) 0.8001(12) 0.018(2) 1. 0
O5 O2- 4 e 0.4938(11) 0.1152(2) 0.5913(12) 0.015(2) 1. 0
O6 O2- 4 e 0.492(1) 0.2036(3) 0.5879(11) 0.010(1) 1. 0
O7 O2- 4 e 0.2333(10) 0.2350(2) 0.8121(11) 0.014(2) 1. 0
O8 O2- 4 e -0.0969(11) 0.1093(2) 0.0685(12) 0.016(2) 1. 0
O9 O2- 4 e 0.0586(14) 0.0370(3) 0.9302(15) 0.034(2) 1. 0
O10 O2- 4 e 0.7105(11) 0.1131(3) 0.4205(11) 0.015(2) 1. 0
O11 O2- 4 e 0.7047(11) 0.2050(2) 0.4112(11) 0.014(2) 1. 0
O12 O2- 4 e -0.0950(10) 0.2165(2) 0.0931(11) 0.011(2) 1. 0
O13 O2- 4 e 0.5660(30) 0.0254(7) 0.7440(30) 0.018(4) 0.333 0
O14 O2- 4 e 0.7980(30) 0.0263(7) 0.3150(30) 0.017(4) 0.333 0
O15 O2- 4 e 0.210(4) 0.0333(10) 0.396(5) 0.017(6) 0.333 0
C1 C3+ 4 e 0.0132(14) 0.1153(3) 0.9662(16) 0.011(2) 1. 0
C2 C3+ 4 e 0.1068(16) 0.0746(4) 0.8942(18) 0.017(2) 1. 0
C3 C3+ 4 e 0.6057(14) 0.1330(4) 0.5028(15) 0.010(2) 1. 0
C4 C3+ 4 e 0.6041(14) 0.1853(4) 0.5014(15) 0.012(2) 1. 0
H1 H1+ 4 e 0.3209 0.243 0.9336 0.021 1. 0
H2 H1+ 4 e 0.1477 0.2553 0.7475 0.021 1. 0
H3 H1+ 4 e -0.1948 0.2303 0.0013 0.017 1. 0
H4 H1+ 4 e -0.0458 0.2184 -0.0041 0.017 1. 0
H5 H1+ 4 e 0.5446 0.0525 0.6989 0.028 0.37 0
H6 H1+ 4 e 0.492 0.002 0.7075 0.028 0.37 0
H7 H1+ 4 e 0.6926 0.0283 0.7917 0.028 0.37 0
H8 H1+ 4 e 0.822 0.0219 0.2019 0.026 0.38 0
H9 H1+ 4 e 0.7067 0.0465 0.2752 0.026 0.38 0
H10 H1+ 4 e 0.7105 0.0078 0.3247 0.026 0.38 0
H11 H1+ 4 e 0.3365 0.0356 0.4664 0.026 0.25 0
H12 H1+ 4 e 0.179 0.0581 0.3267 0.026 0.25 0
H13 H1+ 4 e 0.1892 0.0074 0.3375 0.026 0.25 0
#End of TTdata_166450-ICSD