
#(C) 2018 by FIZ Karlsruhe - Leibniz Institute for Information Infrastructure.  All rights reserved.
data_170058-ICSD
_database_code_ICSD 170058
_audit_creation_date 2005-10-01
_chemical_name_systematic 'Lithium tris(oxalato-O,O')chromate(III) hexahydrate'
_chemical_formula_structural 'Li3 (Cr (C2 O4)3) (H2 O)6'
_chemical_formula_sum 'C6 H12 Cr1 Li3 O18'
_exptl_crystal_density_diffrn 1.82
_cell_measurement_temperature 296.
_publ_section_title 'Lithium tris(oxalato-O,O')chromate(III) hexahydrate'
loop_
_citation_id
_citation_journal_full
_citation_year
_citation_journal_volume
_citation_page_first
_citation_page_last
_citation_journal_id_ASTM
primary 'Acta Crystallographica, Section C: Crystal Structure Communications'
1994 50 1399 1401 ACSCEE
loop_
_publ_author_name
'Sekine, A.'
'Otsuka, T.'
'Ohashi, Y.'
'Kaizu, Y.'
_cell_length_a 9.321(2)
_cell_length_b 11.947(2)
_cell_length_c 8.066(2)
_cell_angle_alpha 104.860(10)
_cell_angle_beta 109.440(10)
_cell_angle_gamma 91.790(10)
_cell_volume 811.95
_cell_formula_units_Z 2
_symmetry_space_group_name_H-M 'P -1'
_symmetry_Int_Tables_number 2
_refine_ls_R_factor_all 0.032
loop_
_symmetry_equiv_pos_site_id
_symmetry_equiv_pos_as_xyz
1 '-x, -y, -z'
2 'x, y, z'
loop_
_atom_type_symbol
_atom_type_oxidation_number
Cr3+ 3
O2- -2
C3+ 3
Li1+ 1
H1+ 1
loop_
_atom_site_label
_atom_site_type_symbol
_atom_site_symmetry_multiplicity
_atom_site_Wyckoff_symbol
_atom_site_fract_x
_atom_site_fract_y
_atom_site_fract_z
_atom_site_B_iso_or_equiv
_atom_site_occupancy
_atom_site_attached_hydrogens
Cr1 Cr3+ 2 i 0.66754(3) 0.28763(2) 0.29828(4) 0.0175 1. 0
O1 O2- 2 i 0.48950(10) 0.27350(10) 0.0732(2) 0.0228 1. 0
O2 O2- 2 i 0.51320(10) 0.21460(10) 0.3704(2) 0.0233 1. 0
O3 O2- 2 i 0.81490(10) 0.34320(10) 0.1985(2) 0.0235 1. 0
O4 O2- 2 i 0.72530(10) 0.13280(10) 0.1982(2) 0.0232 1. 0
O5 O2- 2 i 0.64340(10) 0.44760(10) 0.4198(2) 0.0241 1. 0
O6 O2- 2 i 0.83330(10) 0.30510(10) 0.5372(2) 0.026 1. 0
O7 O2- 2 i 0.24020(10) 0.20420(10) -0.0532(2) 0.028 1. 0
O8 O2- 2 i 0.2656(2) 0.14010(10) 0.2568(2) 0.0277 1. 0
O9 O2- 2 i 0.98200(10) 0.27420(10) 0.0651(2) 0.0263 1. 0
O10 O2- 2 i 0.9001(2) 0.05860(10) 0.0808(2) 0.0285 1. 0
O11 O2- 2 i 0.7295(2) 0.57880(10) 0.6969(2) 0.0326 1. 0
O12 O2- 2 i 0.9318(2) 0.43140(10) 0.8170(2) 0.0321 1. 0
O13 O2- 2 i 0.0947(2) -0.08310(10) 0.2890(2) 0.0376 1. 0
O14 O2- 2 i 0.3591(2) 0.0348(2) 0.6283(3) 0.0501 1. 0
O15 O2- 2 i 1.2602(2) 0.45790(10) -0.0621(2) 0.0389 1. 0
O16 O2- 2 i 0.6322(2) 0.1801(2) 0.7288(2) 0.0475 1. 0
O17 O2- 2 i 0.4983(2) 0.3923(2) 0.7759(3) 0.0508 1. 0
O18 O2- 2 i 0.1135(2) 0.1890(2) 0.5735(2) 0.0476 1. 0
C1 C3+ 2 i 0.3649(2) 0.22520(10) 0.0726(2) 0.0191 1. 0
C2 C3+ 2 i 0.3784(2) 0.18940(10) 0.2477(2) 0.0196 1. 0
C3 C3+ 2 i 0.8838(2) 0.2628(2) 0.1304(2) 0.0197 1. 0
C4 C3+ 2 i 0.8334(2) 0.13910(10) 0.1351(2) 0.0199 1. 0
C5 C3+ 2 i 0.7289(2) 0.4858(2) 0.5899(2) 0.0216 1. 0
C6 C3+ 2 i 0.8424(2) 0.4013(2) 0.6580(2) 0.0222 1. 0
Li1 Li1+ 2 i 1.0705(4) 0.1122(3) -0.0148(5) 0.0298 1. 0
Li2 Li1+ 2 i 1.1061(4) 0.4032(3) 0.0376(5) 0.0322 1. 0
Li3 Li1+ 2 i 0.2077(5) 0.0767(3) 0.4282(5) 0.0375 1. 0
H1 H1+ 2 i 0.0398 -0.1157 0.3428 0.0507 1. 0
H2 H1+ 2 i 0.1661 -0.1318 0.2817 0.0507 1. 0
H3 H1+ 2 i 0.3369 -0.015 0.7021 0.0603 1. 0
H4 H1+ 2 i 0.45 0.0789 0.7001 0.0603 1. 0
H5 H1+ 2 i 1.2253 0.5051 -0.12 0.0474 1. 0
H6 H1+ 2 i 1.3329 0.5028 0.0342 0.0474 1. 0
H7 H1+ 2 i 0.5973 0.2617 0.7654 0.0578 1. 0
H8 H1+ 2 i 0.5971 0.1682 0.6027 0.0578 1. 0
H9 H1+ 2 i 0.4614 0.4383 0.709 0.0607 1. 0
H10 H1+ 2 i 0.4326 0.3905 0.8246 0.0607 1. 0
H11 H1+ 2 i 0.1311 0.2592 0.5437 0.0577 1. 0
H12 H1+ 2 i 0.1726 0.2192 0.6975 0.0577 1. 0
loop_
_atom_site_aniso_label
_atom_site_aniso_type_symbol
_atom_site_aniso_U_11
_atom_site_aniso_U_22
_atom_site_aniso_U_33
_atom_site_aniso_U_12
_atom_site_aniso_U_13
_atom_site_aniso_U_23
Cr1 Cr3+ 0.01380(15) 0.01975(16) 0.01866(15) 0.00300(10) 0.00555(11) 0.00502(10)
O1 O2- 0.0169(6) 0.0320(7) 0.0207(6) -0.0006(5) 0.0060(5) 0.0107(5)
O2 O2- 0.0192(6) 0.0333(7) 0.0195(6) 0.0030(5) 0.0063(5) 0.0117(5)
O3 O2- 0.0217(6) 0.0185(6) 0.0341(7) 0.0038(5) 0.0141(5) 0.0080(5)
O4 O2- 0.0236(6) 0.0194(6) 0.0308(7) 0.0025(5) 0.0153(5) 0.0067(5)
O5 O2- 0.0212(6) 0.0256(6) 0.0215(6) 0.0085(5) 0.0030(5) 0.0054(5)
O6 O2- 0.0208(6) 0.0260(6) 0.0253(6) 0.0078(5) 0.0020(5) 0.0050(5)
O7 O2- 0.0188(6) 0.0392(7) 0.0233(6) -0.0020(5) 0.0022(5) 0.0121(6)
O8 O2- 0.0232(6) 0.0331(7) 0.0302(7) -0.0023(5) 0.0114(5) 0.0129(6)
O9 O2- 0.0215(6) 0.0266(6) 0.0349(7) 0.0010(5) 0.0148(6) 0.0098(5)
O10 O2- 0.0284(7) 0.0216(6) 0.0406(8) 0.0073(5) 0.0191(6) 0.0079(6)
O11 O2- 0.0333(7) 0.0245(7) 0.0305(7) 0.0057(6) 0.0059(6) -0.0013(6)
O12 O2- 0.0285(7) 0.0344(7) 0.0235(7) 0.0012(6) -0.0020(5) 0.0069(6)
O13 O2- 0.0335(8) 0.0398(8) 0.0364(8) 0.0023(6) 0.0088(6) 0.0106(7)
O14 O2- 0.0410(9) 0.0569(11) 0.0529(10) -0.0019(8) 0.0069(8) 0.0300(9)
O15 O2- 0.0337(8) 0.0431(9) 0.0505(9) 0.0115(7) 0.0174(7) 0.0266(7)
O16 O2- 0.0431(9) 0.0555(11) 0.0413(9) 0.0066(8) 0.0083(8) 0.0178(8)
O17 O2- 0.0461(10) 0.0629(11) 0.0615(11) 0.0196(8) 0.0266(9) 0.0364(10)
O18 O2- 0.0527(10) 0.0560(10) 0.0332(8) 0.0190(8) 0.0133(8) 0.0122(8)
C1 C3+ 0.0198(8) 0.0205(8) 0.0179(8) 0.0026(6) 0.0074(6) 0.0059(6)
C2 C3+ 0.0192(8) 0.0207(8) 0.0212(8) 0.0044(6) 0.0094(6) 0.0066(6)
C3 C3+ 0.0151(7) 0.0205(8) 0.0214(8) 0.0009(6) 0.0043(6) 0.0057(6)
C4 C3+ 0.0174(8) 0.0204(8) 0.0213(8) 0.0014(6) 0.0059(6) 0.0062(6)
C5 C3+ 0.0170(8) 0.0228(8) 0.0242(8) 0.0019(6) 0.0065(7) 0.0066(7)
C6 C3+ 0.0160(8) 0.0253(8) 0.0239(8) 0.0007(6) 0.0044(7) 0.0086(7)
Li1 Li1+ 0.0264(16) 0.0272(16) 0.0382(18) 0.0030(13) 0.0155(14) 0.0079(14)
Li2 Li1+ 0.0338(18) 0.0311(17) 0.0305(17) -0.0019(14) 0.0092(14) 0.0100(14)
Li3 Li1+ 0.041(2) 0.041(2) 0.0360(19) 0.0040(16) 0.0176(16) 0.0145(16)
#End of TTdata_170058-ICSD