
#(C) 2018 by FIZ Karlsruhe - Leibniz Institute for Information Infrastructure.  All rights reserved.
data_246786-ICSD
_database_code_ICSD 246786
_audit_creation_date 2010-02-01
_audit_update_record 2013-08-01
_chemical_name_systematic 'Lithium hydrogen oxalate monohydrate'
_chemical_formula_structural 'Li H (C2 O4) (H2 O)'
_chemical_formula_sum 'C2 H3 Li1 O5'
_chemical_name_structure_type LiHC2O4H2O
_exptl_crystal_density_diffrn 1.85
_cell_measurement_temperature 293.
_publ_section_title

;
Hydrogen bond studies. LXI.* An X-ray diffraction study of the isotope effect
in lithium hydrogen oxalate monohydrate, Li H C2 O4 * H2O
;
loop_
_citation_id
_citation_journal_full
_citation_year
_citation_journal_volume
_citation_page_first
_citation_page_last
_citation_journal_id_ASTM
primary

;
Acta Crystallographica, Section B: Structural Crystallography and Crystal
Chemistry
; 1972 28 2037 2045 ACBCAR
loop_
_publ_author_name
'Thomas, J.O.'
_cell_length_a 5.056(1)
_cell_length_b 6.140(1)
_cell_length_c 3.411(1)
_cell_angle_alpha 95.06(1)
_cell_angle_beta 98.93(1)
_cell_angle_gamma 78.57(1)
_cell_volume 102.35
_cell_formula_units_Z 1
_symmetry_space_group_name_H-M 'P 1'
_symmetry_Int_Tables_number 1
_refine_ls_R_factor_all 0.024
loop_
_symmetry_equiv_pos_site_id
_symmetry_equiv_pos_as_xyz
1 'x, y, z'
loop_
_atom_type_symbol
_atom_type_oxidation_number
Li1+ 1
O2- -2
C3+ 3
O2- -2
H1+ 1
loop_
_atom_site_label
_atom_site_type_symbol
_atom_site_symmetry_multiplicity
_atom_site_Wyckoff_symbol
_atom_site_fract_x
_atom_site_fract_y
_atom_site_fract_z
_atom_site_B_iso_or_equiv
_atom_site_occupancy
_atom_site_attached_hydrogens
Li1 Li1+ 1 a 0.86692(40) 0.69920(33) 0.91086(59) . 1. 0
O1 O2- 1 a 0 0 0 . 1. 0
O2 O2- 1 a -0.18998(19) 0.34025(15) -0.21069(32) . 1. 0
O3 O2- 1 a 0.21309(18) 0.51117(14) 0.16583(29) . 1. 0
O4 O2- 1 a 0.41837(19) 0.18547(15) 0.41536(32) . 1. 0
C1 C3+ 1 a -0.00104(22) 0.19629(16) -0.01473(33) . 1. 0
C2 C3+ 1 a 0.23126(21) 0.30990(17) 0.20697(34) . 1. 0
O5 O2- 1 a 0.63552(21) 0.74659(16) 0.36361(33) . 1. 0
H1 H1+ 1 a 0.688(6) 0.275(5) 0.658(11) 4.4(6) 1. 0
H2 H1+ 1 a 0.530(5) 0.659(4) 0.340(8) 2.8(4) 1. 0
H3 H1+ 1 a 0.534(5) 0.875(4) 0.364(7) 2.8(4) 1. 0
loop_
_atom_site_aniso_label
_atom_site_aniso_type_symbol
_atom_site_aniso_U_11
_atom_site_aniso_U_22
_atom_site_aniso_U_33
_atom_site_aniso_U_12
_atom_site_aniso_U_13
_atom_site_aniso_U_23
Li1 Li1+ 0.0165(6) 0.0111(4) 0.0401(13) -0.0013(4) -0.0045(7) 0.0045(6)
O1 O2- 0.0200(2) 0.0071(1) 0.0511(6) -0.0053(1) -0.0067(3) 0.0042(2)
O2 O2- 0.0120(2) 0.0086(1) 0.0447(5) -0.0027(1) -0.0108(2) 0.0044(2)
O3 O2- 0.0135(2) 0.0066(1) 0.0546(6) -0.0037(1) -0.0073(3) 0.0041(2)
O4 O2- 0.0129(2) 0.0078(1) 0.0471(5) -0.0013(1) -0.0122(2) 0.0028(2)
C1 C3+ 0.0097(2) 0.0068(1) 0.0250(5) -0.0025(1) -0.0030(2) 0.0019(2)
C2 C3+ 0.0085(2) 0.0061(1) 0.0281(5) -0.0018(1) -0.0025(2) 0.0009(2)
O5 O2- 0.0151(2) 0.0070(1) 0.0444(5) -0.0025(1) -0.0021(2) 0.0017(2)
#End of TTdata_246786-ICSD