
#(C) 2018 by FIZ Karlsruhe - Leibniz Institute for Information Infrastructure.  All rights reserved.
data_260272-ICSD
_database_code_ICSD 260272
_audit_creation_date 2009-08-01
_chemical_name_systematic 'Lithium tris(trifluoromethyl-isobutylate)'
_chemical_formula_structural 'Li (O C (C F3)3) (H2 O)2.5'
_chemical_formula_sum 'C4 H5 F9 Li1 O3.5'
_exptl_crystal_density_diffrn 1.9
_cell_measurement_temperature 123.
_publ_section_title
'Snapshots of the Hydrolysis of the lithium alkoxide Li [O C (C F3)3]'
loop_
_citation_id
_citation_journal_full
_citation_year
_citation_journal_volume
_citation_page_first
_citation_page_last
_citation_journal_id_ASTM
primary 'Zeitschrift fuer Anorganische und Allgemeine Chemie (1950) (DE)' 2009
635 513 517 ZAACAB
loop_
_publ_author_name
'Raabe, I.'
'Wagner, K.'
'Santiso-Quinones, G.'
'Krossing, I.'
_cell_length_a 7.3257(15)
_cell_length_b 22.967(5)
_cell_length_c 11.917(2)
_cell_angle_alpha 90.
_cell_angle_beta 92.85(3)
_cell_angle_gamma 90.
_cell_volume 2002.55
_cell_formula_units_Z 8
_symmetry_space_group_name_H-M 'P 1 21/c 1'
_symmetry_Int_Tables_number 14
_refine_ls_R_factor_all 0.043
loop_
_symmetry_equiv_pos_site_id
_symmetry_equiv_pos_as_xyz
1 'x, -y+1/2, z+1/2'
2 '-x, -y, -z'
3 '-x, y+1/2, -z+1/2'
4 'x, y, z'
loop_
_atom_type_symbol
_atom_type_oxidation_number
O2- -2
F1- -1
C2+ 2.5
Li1+ 1
H1+ 1
loop_
_atom_site_label
_atom_site_type_symbol
_atom_site_symmetry_multiplicity
_atom_site_Wyckoff_symbol
_atom_site_fract_x
_atom_site_fract_y
_atom_site_fract_z
_atom_site_B_iso_or_equiv
_atom_site_occupancy
_atom_site_attached_hydrogens
O1 O2- 4 e 0.3894(4) 0.38949(11) 0.1456(2) 0.0262(9) 1 0
O2 O2- 4 e 0.1290(4) 0.56862(11) 0.2167(2) 0.0272(9) 1 0
O3 O2- 4 e -0.0026(4) 0.46461(11) 0.1681(2) 0.0294(9) 1 0
O4 O2- 4 e 0.0186(4) 0.37955(12) -0.0267(3) 0.0412(10) 1 0
O5 O2- 4 e 0.4730(5) 0.61171(13) 0.0618(3) 0.0474(10) 1 0
O6 O2- 4 e 0.5153(4) 0.49610(12) 0.1899(2) 0.0324(9) 1 0
O7 O2- 4 e 0.2536(4) 0.49754(12) -0.0033(2) 0.0306(9) 1 0
F1 F1- 4 e 0.1428(4) 0.29355(11) 0.1568(2) 0.0544(9) 1 0
F2 F1- 4 e 0.3628(4) 0.23913(11) 0.2177(3) 0.0722(11) 1 0
F3 F1- 4 e 0.3720(4) 0.28075(12) 0.0581(3) 0.0781(11) 1 0
F4 F1- 4 e 0.6958(4) 0.31147(13) 0.1441(2) 0.0636(10) 1 0
F5 F1- 4 e 0.6637(4) 0.29267(11) 0.3167(2) 0.0577(10) 1 0
F6 F1- 4 e 0.7129(3) 0.38014(11) 0.2637(2) 0.0540(9) 1 0
F7 F1- 4 e 0.1611(4) 0.37276(11) 0.3163(2) 0.0548(9) 1 0
F8 F1- 4 e 0.3314(5) 0.30968(13) 0.3971(3) 0.0890(12) 1 0
F9 F1- 4 e 0.4210(4) 0.39866(13) 0.3836(2) 0.0683(10) 1 0
F10 F1- 4 e 0.1632(4) 0.57088(11) 0.5159(2) 0.0515(9) 1 0
F11 F1- 4 e 0.3865(4) 0.55832(13) 0.4077(2) 0.0620(10) 1 0
F12 F1- 4 e 0.1582(4) 0.49983(11) 0.3985(2) 0.0484(9) 1 0
F13 F1- 4 e 0.2160(4) 0.67793(12) 0.4234(2) 0.0718(11) 1 0
F14 F1- 4 e 0.0999(5) 0.69151(11) 0.2563(3) 0.0756(11) 1 0
F15 F1- 4 e 0.3641(4) 0.65320(13) 0.2813(3) 0.0764(11) 1 0
F16 F1- 4 e -0.1284(4) 0.63330(12) 0.4275(2) 0.0613(10) 1 0
F17 F1- 4 e -0.1901(4) 0.62036(12) 0.2528(2) 0.0575(9) 1 0
F18 F1- 4 e -0.1682(3) 0.54715(11) 0.3615(2) 0.0492(9) 1 0
C1 C2+ 4 e 0.4159(6) 0.34336(18) 0.2156(4) 0.0271(14) 1 0
C2 C2+ 4 e 0.3255(7) 0.2877(2) 0.1646(5) 0.0465(17) 1 0
C3 C2+ 4 e 0.6228(7) 0.3317(2) 0.2376(4) 0.0369(16) 1 0
C4 C2+ 4 e 0.3346(7) 0.3562(2) 0.3316(4) 0.0449(17) 1 0
C5 C2+ 4 e 0.1097(6) 0.59325(18) 0.3187(4) 0.0277(14) 1 0
C6 C2+ 4 e 0.2031(7) 0.5556(2) 0.4112(4) 0.0405(16) 1 0
C7 C2+ 4 e 0.1993(8) 0.6542(2) 0.3210(5) 0.0585(19) 1 0
C8 C2+ 4 e -0.0944(7) 0.5999(2) 0.3418(4) 0.0396(16) 1 0
Li1 Li1+ 4 e 0.1721(10) 0.4222(3) 0.0773(7) 0.035(2) 1 0
Li2 Li1+ 4 e 0.3351(10) 0.5525(3) 0.1292(6) 0.029(2) 1 0
H1 H1+ 4 e 0.497(5) 0.6206(15) -0.0128(15) 0.054(14) 1 0
H2 H1+ 4 e -0.010(8) 0.3949(17) -0.0993(19) 0.14(3) 1 0
H3 H1+ 4 e -0.053(4) 0.3465(10) -0.013(4) 0.10(2) 1 0
H4 H1+ 4 e 0.563(4) 0.6366(15) 0.095(4) 0.16(3) 1 0
H5 H1+ 4 e 0.018(6) 0.5040(8) 0.192(3) 0.080(17) 1 0
H6 H1+ 4 e 0.471(4) 0.4573(8) 0.185(4) 0.049(14) 1 0
H7 H1+ 4 e 0.569(5) 0.499(2) 0.2640(17) 0.10(2) 1 0
H8 H1+ 4 e -0.075(4) 0.4439(18) 0.220(3) 0.20(3) 1 0
H9 H1+ 4 e 0.331(3) 0.484(2) -0.060(2) 0.24(4) 1 0
H10 H1+ 4 e 0.173(3) 0.5214(13) -0.046(3) 0.14(3) 1 0
loop_
_atom_site_aniso_label
_atom_site_aniso_type_symbol
_atom_site_aniso_U_11
_atom_site_aniso_U_22
_atom_site_aniso_U_33
_atom_site_aniso_U_12
_atom_site_aniso_U_13
_atom_site_aniso_U_23
O1 O2- 0.0394(18) 0.0254(17) 0.0141(18) -0.0022(15) 0.0022(15) 0.0021(15)
O2 O2- 0.0378(18) 0.0329(18) 0.0106(18) -0.0001(15) -0.0001(16) -0.0019(15)
O3 O2- 0.0384(18) 0.0279(18) 0.022(2) -0.0015(15) 0.0017(17) -0.0042(16)
O4 O2- 0.063(2) 0.0343(19) 0.025(2) -0.0124(18) -0.0050(19) 0.0018(18)
O5 O2- 0.074(2) 0.047(2) 0.022(2) -0.0189(19) 0.0127(19) 0.0023(18)
O6 O2- 0.0386(19) 0.0315(18) 0.027(2) -0.0013(16) -0.0012(17) -0.0048(17)
O7 O2- 0.0371(18) 0.0370(18) 0.0175(19) -0.0010(16) 0.0001(16) -0.0014(16)
F1 F1- 0.0539(18) 0.0511(18) 0.057(2) -0.0105(15) -0.0076(17) 0.0104(16)
F2 F1- 0.085(2) 0.0310(16) 0.099(3) -0.0097(16) -0.015(2) 0.0281(18)
F3 F1- 0.110(3) 0.063(2) 0.064(2) -0.0309(18) 0.022(2) -0.0277(18)
F4 F1- 0.0560(19) 0.091(2) 0.045(2) 0.0273(17) 0.0102(17) -0.0054(18)
F5 F1- 0.0680(19) 0.0551(18) 0.049(2) 0.0144(16) -0.0092(17) 0.0237(16)
F6 F1- 0.0421(17) 0.0499(18) 0.069(2) -0.0046(14) -0.0059(16) 0.0022(17)
F7 F1- 0.0551(17) 0.0724(19) 0.0388(19) 0.0134(16) 0.0215(16) 0.0067(16)
F8 F1- 0.142(3) 0.084(2) 0.046(2) 0.061(2) 0.054(2) 0.0430(18)
F9 F1- 0.082(2) 0.093(2) 0.0297(19) -0.0026(19) 0.0052(18) -0.0276(18)
F10 F1- 0.0780(19) 0.0665(19) 0.0095(16) 0.0037(16) -0.0020(15) -0.0054(15)
F11 F1- 0.0456(17) 0.109(2) 0.0305(19) 0.0074(17) -0.0090(15) -0.0131(17)
F12 F1- 0.082(2) 0.0385(16) 0.0234(17) 0.0061(16) -0.0089(16) 0.0045(14)
F13 F1- 0.125(3) 0.061(2) 0.0310(19) -0.0367(18) 0.0230(19) -0.0190(16)
F14 F1- 0.139(3) 0.0376(17) 0.051(2) -0.0153(19) 0.013(2) 0.0024(17)
F15 F1- 0.089(2) 0.095(2) 0.047(2) -0.0603(19) 0.0283(18) -0.0262(18)
F16 F1- 0.072(2) 0.078(2) 0.0352(19) 0.0144(17) 0.0182(17) -0.0184(17)
F17 F1- 0.0595(19) 0.078(2) 0.0350(19) 0.0278(16) 0.0037(16) 0.0106(17)
F18 F1- 0.0469(17) 0.0643(19) 0.0367(19) -0.0102(15) 0.0065(15) 0.0053(16)
C1 C2+ 0.034(3) 0.029(3) 0.018(3) -0.005(2) 0.004(3) -0.001(3)
C2 C2+ 0.041(3) 0.052(4) 0.047(4) -0.009(3) 0.014(3) 0.014(3)
C3 C2+ 0.053(3) 0.035(3) 0.023(3) 0.003(3) 0.005(3) -0.001(3)
C4 C2+ 0.051(3) 0.049(3) 0.035(4) 0.026(3) 0.007(3) 0.030(3)
C5 C2+ 0.034(3) 0.028(3) 0.021(3) -0.002(2) 0.003(3) 0.002(3)
C6 C2+ 0.038(3) 0.061(4) 0.022(3) -0.001(3) -0.002(3) -0.004(3)
C7 C2+ 0.096(4) 0.055(4) 0.027(4) -0.016(4) 0.026(4) -0.004(3)
C8 C2+ 0.058(4) 0.043(3) 0.019(3) 0.007(3) 0.013(3) -0.006(3)
Li1 Li1+ 0.033(5) 0.037(5) 0.035(6) -0.009(4) -0.005(4) -0.007(4)
Li2 Li1+ 0.037(5) 0.048(5) 0.002(4) -0.007(4) 0.001(4) -0.001(4)
#End of TTdata_260272-ICSD