
#(C) 2017 by FIZ Karlsruhe - Leibniz Institute for Information Infrastructure.  All rights reserved.
data_422088-ICSD
_database_code_ICSD 422088
_audit_creation_date 2011-08-01
_chemical_name_systematic 'Poly(triazine imide) lithium chloride'
_chemical_formula_structural '(C3 N3)2 (N H)3 Li Cl'
_chemical_formula_sum 'C6 H3 Cl1 Li1 N9'
_exptl_crystal_density_diffrn 1.93
_cell_measurement_temperature 293.
_publ_section_title

;
Poly(triazine imide) with intercalation of lithium and chloride ions [(C3 N3)2
(N H(x) Li(1-x))3 * Li Cl]: A crystalline 2D carbon nitride network
;
loop_
_citation_id
_citation_journal_full
_citation_year
_citation_journal_volume
_citation_page_first
_citation_page_last
_citation_journal_id_ASTM
primary 'Chemistry - A European Journal' 2011 17 3213 3221 CEUJED
loop_
_publ_author_name
'Wirnhier, E.'
'Doeblinger, M.'
'Gunzelmann, D.'
'Senker, J.'
'Lotsch, B.V.'
'Schnick, W.'
_cell_length_a 8.46824(99)
_cell_length_b 8.46824(99)
_cell_length_c 6.75020(88)
_cell_angle_alpha 90
_cell_angle_beta 90
_cell_angle_gamma 120
_cell_volume 419.21
_cell_formula_units_Z 2
_symmetry_space_group_name_H-M 'P 63 c m'
_symmetry_Int_Tables_number 185
_refine_ls_R_factor_all 0.0418
loop_
_symmetry_equiv_pos_site_id
_symmetry_equiv_pos_as_xyz
1 'x, x-y, z+1/2'
2 '-x+y, y, z+1/2'
3 '-y, -x, z+1/2'
4 'x-y, x, z+1/2'
5 'y, -x+y, z+1/2'
6 '-x, -y, z+1/2'
7 '-x, -x+y, z'
8 'x-y, -y, z'
9 'y, x, z'
10 '-x+y, -x, z'
11 '-y, x-y, z'
12 'x, y, z'
loop_
_atom_type_symbol
_atom_type_oxidation_number
Cl1- -1
Li1+ 1
C4+ 4
N3- -3
H1+ 1
loop_
_atom_site_label
_atom_site_type_symbol
_atom_site_symmetry_multiplicity
_atom_site_Wyckoff_symbol
_atom_site_fract_x
_atom_site_fract_y
_atom_site_fract_z
_atom_site_B_iso_or_equiv
_atom_site_occupancy
_atom_site_attached_hydrogens
Cl1 Cl1- 2 a 0. 0. 0.4404 5.54(25) 1 0
Li1 Li1+ 6 c 0.22 0. 0.205 0.7 0.333 0
C1 C4+ 12 d 0.6427 0.158 0.2455 0.7 1. 0
N1 N3- 12 d 0.4926 0.1812 0.2203 0.7 1. 0
N2 N3- 6 c 0.6387 0. 0.2263 0.7 1. 0
#End of TTdata_422088-ICSD