
#(C) 2018 by FIZ Karlsruhe - Leibniz Institute for Information Infrastructure.  All rights reserved.
data_151231-ICSD
_database_code_ICSD 151231
_audit_creation_date 2006-10-01
_audit_update_record 2013-08-01
_chemical_name_systematic 'Lithium formate hydrate'
_chemical_formula_structural 'Li (H C O O) (H2 O)'
_chemical_formula_sum 'C1 H3 Li1 O3'
_chemical_name_structure_type LiHCOOH2O
_exptl_crystal_density_diffrn 1.48
_cell_measurement_temperature 298.
_publ_section_title

;
Hydrogen bond studies. XCVI. X-N maps and ab initio MO-LCAO-SCF calculations
of the difference electron density in non-centrosymmetric lithium formate
monohydrate, Li H C O O * (H2 O)
;
loop_
_citation_id
_citation_journal_full
_citation_year
_citation_journal_volume
_citation_page_first
_citation_page_last
_citation_journal_id_ASTM
primary

;
Acta Crystallographica, Section B: Structural Crystallography and Crystal
Chemistry
; 1975 31 1946 1955 ACBCAR
loop_
_publ_author_name
'Thomas, J.O.'
'Tellgren, R.'
'Almloef, J.'
_cell_length_a 9.98436(2)
_cell_length_b 6.49058(4)
_cell_length_c 4.85227(5)
_cell_angle_alpha 90.
_cell_angle_beta 90.
_cell_angle_gamma 90.
_cell_volume 314.45
_cell_formula_units_Z 4
_symmetry_space_group_name_H-M 'P n a 21'
_symmetry_Int_Tables_number 33
_refine_ls_R_factor_all 0.025
loop_
_symmetry_equiv_pos_site_id
_symmetry_equiv_pos_as_xyz
1 'x+1/2, -y+1/2, z'
2 '-x+1/2, y+1/2, z+1/2'
3 '-x, -y, z+1/2'
4 'x, y, z'
loop_
_atom_type_symbol
_atom_type_oxidation_number
Li1+ 1
H1- -1
C4+ 4
O2- -2
H1+ 1
loop_
_atom_site_label
_atom_site_type_symbol
_atom_site_symmetry_multiplicity
_atom_site_Wyckoff_symbol
_atom_site_fract_x
_atom_site_fract_y
_atom_site_fract_z
_atom_site_B_iso_or_equiv
_atom_site_occupancy
_atom_site_attached_hydrogens
Li1 Li1+ 4 a 0.0493(4) 0.1165(6) -0.2298(11) . 1. 0
H1 H1- 4 a 0.2828(3) 0.1598(9) 0.3716(10) . 1. 0
C1 C4+ 4 a 0.1953(1) 0.1127(2) 0.2542(4) . 1. 0
O1 O2- 4 a 0.2081(1) 0.0997(3) 0 . 1. 0
O2 O2- 4 a 0.0902(1) 0.0786(2) 0.3854(5) . 1. 0
O3 O2- 4 a 0.4656(1) 0.1097(2) -0.1789(4) . 1. 0
H2 H1+ 4 a 0.3710(2) 0.1083(4) -0.1280(7) . 1. 0
H3 H1+ 4 a 0.4762(3) 0.0239(5) -0.3397(9) . 1. 0
loop_
_atom_site_aniso_label
_atom_site_aniso_type_symbol
_atom_site_aniso_beta_11
_atom_site_aniso_beta_22
_atom_site_aniso_beta_33
_atom_site_aniso_beta_12
_atom_site_aniso_beta_13
_atom_site_aniso_beta_23
Li1 Li1+ 0.0063(3) 0.0184(7) 0.0261(18) -0.0007(4) -0.0004(6) -0.0021(10)
H1 H1- 0.0090(3) 0.0626(17) 0.0366(16) -0.0075(5) -0.0028(6) -0.0070(15)
C1 C4+ 0.0047(1) 0.0191(3) 0.0188(5) -0.0010(1) -0.0002(2) -0.0011(3)
O1 O2- 0.0047(1) 0.0286(5) 0.0187(7) -0.0001(2) 0.0010(2) -0.0005(4)
O2 O2- 0.0060(1) 0.0195(3) 0.0202(5) -0.0022(1) 0.0020(2) -0.0028(4)
O3 O2- 0.0058(1) 0.0155(3) 0.0263(7) -0.0003(1) 0.0016(2) -0.0004(4)
H2 H1+ 0.0068(2) 0.0243(6) 0.0353(13) 0.0003(3) 0.0016(5) 0.0022(8)
H3 H1+ 0.0093(3) 0.0242(7) 0.0375(14) 0.0005(3) 0.0019(5) -0.0065(9)
#End of TTdata_151231-ICSD