
#(C) 2018 by FIZ Karlsruhe - Leibniz Institute for Information Infrastructure.  All rights reserved.
data_159323-ICSD
_database_code_ICSD 159323
_audit_creation_date 2008-08-01
_chemical_name_systematic 'Lithium tris(trimethylsilyl)hydrazide'
_chemical_formula_structural '(((C H3)3 Si)2 N N ((C H3)3 Si)) Li'
_chemical_formula_sum 'C9 H27 Li1 N2 Si3'
_exptl_crystal_density_diffrn 1.04
_cell_measurement_temperature 143.
_publ_section_title

;
Kristallstruktur des Bis(lithium-tris(trimethylsilyl)-hydrazids) und
Reaktionen mit Fluorboranen, - silanen und -phosphanen
;
loop_
_citation_id
_citation_journal_full
_citation_year
_citation_journal_volume
_citation_page_first
_citation_page_last
_citation_journal_id_ASTM
primary 'Zeitschrift fuer Anorganische und Allgemeine Chemie (1950) (DE)' 1995
621 500 505 ZAACAB
loop_
_publ_author_name
'Bode, K.'
'Klingebiel, U.'
'Noltemeyer, M.'
'Witte-Abel, H.'
_cell_length_a 8.776(2)
_cell_length_b 9.579(2)
_cell_length_c 21.949(8)
_cell_angle_alpha 100.84(2)
_cell_angle_beta 92.18(2)
_cell_angle_gamma 115.670(10)
_cell_volume 1618.41
_cell_formula_units_Z 4
_symmetry_space_group_name_H-M 'P -1'
_symmetry_Int_Tables_number 2
_refine_ls_R_factor_all 0.0333
loop_
_symmetry_equiv_pos_site_id
_symmetry_equiv_pos_as_xyz
1 '-x, -y, -z'
2 'x, y, z'
loop_
_atom_type_symbol
_atom_type_oxidation_number
Li1+ 1
N2- -2
Si4+ 4
C4- -4
N2- -2
Si4+ 4
C4- -4
Si4+ 4
C4- -4
Li1+ 1
N2- -2
Si4+ 4
C4- -4
N2- -2
Si4+ 4
C4- -4
Si4+ 4
C4- -4
H1+ 1
loop_
_atom_site_label
_atom_site_type_symbol
_atom_site_symmetry_multiplicity
_atom_site_Wyckoff_symbol
_atom_site_fract_x
_atom_site_fract_y
_atom_site_fract_z
_atom_site_B_iso_or_equiv
_atom_site_occupancy
_atom_site_attached_hydrogens
Li1 Li1+ 2 i 0.1357(4) 0.0468(4) 0.0248(2) 0.032(1) 1. 0
N1 N2- 2 i -0.0658(2) -0.0123(2) 0.0653(1) 0.025(1) 1. 0
Si1 Si4+ 2 i -0.2261(1) -0.1525(1) 0.0935(1) 0.027(1) 1. 0
C1 C4- 2 i -0.3911(3) -0.2675(3) 0.0226(1) 0.044(1) 1. 0
C2 C4- 2 i -0.1734(3) -0.3021(3) 0.1219(1) 0.047(1) 1. 0
C3 C4- 2 i -0.3319(3) -0.0786(3) 0.1551(1) 0.040(1) 1. 0
N2 N2- 2 i 0.0551(2) 0.1530(2) 0.1033(1) 0.026(1) 1. 0
Si2 Si4+ 2 i 0.2035(1) 0.1624(1) 0.1607(1) 0.033(1) 1. 0
C4 C4- 2 i 0.2969(3) 0.0262(3) 0.1282(1) 0.050(1) 1. 0
C5 C4- 2 i 0.1187(3) 0.1096(3) 0.2343(1) 0.045(1) 1. 0
C6 C4- 2 i 0.3813(3) 0.3686(3) 0.1819(1) 0.056(1) 1. 0
Si3 Si4+ 2 i -0.0148(2) 0.2995(1) 0.1030(1) 0.031(1) 1. 0
C7 C4- 2 i -0.2022(3) 0.2252(3) 0.0427(1) 0.050(1) 1. 0
C8 C4- 2 i -0.0735(3) 0.3639(3) 0.1808(1) 0.050(1) 1. 0
C9 C4- 2 i 0.1530(3) 0.4810(3) 0.0835(1) 0.051(1) 1. 0
Li2 Li1+ 2 i 0.4734(4) 0.1079(4) 0.5030(2) 0.031(1) 1. 0
N3 N2- 2 i 0.4264(2) -0.0206(2) 0.5639(1) 0.024(1) 1. 0
Si4 Si4+ 2 i 0.2835(1) -0.1749(1) 0.5918(1) 0.025(1) 1. 0
C10 C4- 2 i 0.0558(3) -0.2082(3) 0.5820(1) 0.041(1) 1. 0
C11 C4- 2 i 0.2862(3) -0.3545(2) 0.5400(1) 0.036(1) 1. 0
C12 C4- 2 i 0.3351(3) -0.1811(3) 0.6745(1) 0.038(1) 1. 0
N4 N2- 2 i 0.5283(2) 0.1489(2) 0.6023(1) 0.024(1) 1. 0
Si5 Si4+ 2 i 0.7233(1) 0.1862(1) 0.6429(1) 0.026(1) 1. 0
C13 C4- 2 i 0.9025(3) 0.3740(3) 0.6320(1) 0.045(1) 1. 0
C14 C4- 2 i 0.7824(3) 0.0238(3) 0.6127(1) 0.042(1) 1. 0
C15 C4- 2 i 0.7173(3) 0.2084(3) 0.7292(1) 0.038(1) 1. 0
Si6 Si4+ 2 i 0.4142(1) 0.2577(1) 0.6219(1) 0.026(1) 1. 0
C16 C4- 2 i 0.2921(3) 0.2123(3) 0.6893(1) 0.037(1) 1. 0
C17 C4- 2 i 0.5651(3) 0.4750(2) 0.6419(1) 0.040(1) 1. 0
C18 C4- 2 i 0.2608(3) 0.2209(3) 0.5525(1) 0.036(1) 1. 0
H1 H1+ 2 i -0.4365(14) -0.1989(6) 0.0096(4) 0.066(1) 1. 0
H2 H1+ 2 i -0.4841(10) -0.3597(11) 0.0328(2) 0.066(1) 1. 0
H3 H1+ 2 i -0.3387(5) -0.3037(16) -0.0116(2) 0.066(1) 1. 0
H4 H1+ 2 i -0.0887(15) -0.2487(4) 0.1595(4) 0.066(1) 1. 0
H5 H1+ 2 i -0.1270(19) -0.3506(14) 0.0891(3) 0.066(1) 1. 0
H6 H1+ 2 i -0.2771(5) -0.3848(10) 0.1319(7) 0.066(1) 1. 0
H7 H1+ 2 i -0.3708(18) -0.0077(15) 0.1403(3) 0.066(1) 1. 0
H8 H1+ 2 i -0.2503(6) -0.0203(16) 0.1934(4) 0.066(1) 1. 0
H9 H1+ 2 i -0.4299(12) -0.1691(3) 0.1641(5) 0.066(1) 1. 0
H10 H1+ 2 i 0.3546(17) 0.0601(11) 0.0925(5) 0.066(1) 1. 0
H11 H1+ 2 i 0.2056(4) -0.0827(4) 0.1145(7) 0.066(1) 1. 0
H12 H1+ 2 i 0.3792(15) 0.0299(15) 0.1606(2) 0.066(1) 1. 0
H13 H1+ 2 i 0.2122(4) 0.1248(18) 0.2648(3) 0.066(1) 1. 0
H14 H1+ 2 i 0.0324(14) -0.0018(6) 0.2251(2) 0.066(1) 1. 0
H15 H1+ 2 i 0.0669(18) 0.1782(13) 0.2517(4) 0.066(1) 1. 0
H16 H1+ 2 i 0.4694(10) 0.3734(5) 0.2122(6) 0.066(1) 1. 0
H17 H1+ 2 i 0.3373(5) 0.4428(4) 0.2003(7) 0.066(1) 1. 0
H18 H1+ 2 i 0.4307(13) 0.3979(8) 0.1441(2) 0.066(1) 1. 0
H19 H1+ 2 i -0.2918(8) 0.1259(10) 0.0496(5) 0.066(1) 1. 0
H20 H1+ 2 i -0.1686(6) 0.2056(18) 0.0011(1) 0.066(1) 1. 0
H21 H1+ 2 i -0.2452(13) 0.3047(9) 0.0456(5) 0.066(1) 1. 0
H22 H1+ 2 i -0.1695(13) 0.2734(5) 0.1906(4) 0.066(1) 1. 0
H23 H1+ 2 i -0.1063(20) 0.4490(13) 0.1792(2) 0.066(1) 1. 0
H24 H1+ 2 i 0.0246(7) 0.4032(18) 0.2132(2) 0.066(1) 1. 0
H25 H1+ 2 i 0.1765(14) 0.4541(5) 0.0407(3) 0.066(1) 1. 0
H26 H1+ 2 i 0.2576(7) 0.5214(11) 0.1128(5) 0.066(1) 1. 0
H27 H1+ 2 i 0.1131(9) 0.5628(7) 0.0867(7) 0.066(1) 1. 0
H28 H1+ 2 i 0.0456(5) -0.1199(9) 0.6092(5) 0.066(1) 1. 0
H29 H1+ 2 i -0.0178(4) -0.3081(9) 0.5932(7) 0.066(1) 1. 0
H30 H1+ 2 i 0.0207(7) -0.2139(18) 0.5383(2) 0.066(1) 1. 0
H31 H1+ 2 i 0.3953(8) -0.3557(10) 0.5501(5) 0.066(1) 1. 0
H32 H1+ 2 i 0.2719(20) -0.3499(10) 0.4960(1) 0.066(1) 1. 0
H33 H1+ 2 i 0.1928(12) -0.4513(2) 0.5470(5) 0.066(1) 1. 0
H34 H1+ 2 i 0.4487(9) -0.1763(18) 0.6803(2) 0.066(1) 1. 0
H35 H1+ 2 i 0.2502(12) -0.2801(9) 0.6833(2) 0.066(1) 1. 0
H36 H1+ 2 i 0.3335(19) -0.0901(10) 0.7032(1) 0.066(1) 1. 0
H37 H1+ 2 i 0.9163(13) 0.3643(7) 0.5875(2) 0.066(1) 1. 0
H38 H1+ 2 i 0.0083(5) 0.3924(10) 0.6562(6) 0.066(1) 1. 0
H39 H1+ 2 i 0.8767(9) 0.4636(4) 0.6465(7) 0.066(1) 1. 0
H40 H1+ 2 i 0.6885(9) -0.0788(3) 0.6144(7) 0.066(1) 1. 0
H41 H1+ 2 i 0.8852(12) 0.0408(11) 0.6385(5) 0.066(1) 1. 0
H42 H1+ 2 i 0.8045(20) 0.0238(12) 0.5693(3) 0.066(1) 1. 0
H43 H1+ 2 i 0.6316(14) 0.1089(7) 0.7374(1) 0.066(1) 1. 0
H44 H1+ 2 i 0.6874(19) 0.2947(12) 0.7453(2) 0.066(1) 1. 0
H45 H1+ 2 i 0.8296(6) 0.2334(18) 0.7502(1) 0.066(1) 1. 0
H46 H1+ 2 i 0.2260(16) 0.2730(14) 0.6953(5) 0.066(1) 1. 0
H47 H1+ 2 i 0.3718(3) 0.2418(17) 0.7273(2) 0.066(1) 1. 0
H48 H1+ 2 i 0.2145(14) 0.0983(4) 0.6807(3) 0.066(1) 1. 0
H49 H1+ 2 i 0.5011(4) 0.5365(2) 0.6522(7) 0.066(1) 1. 0
H50 H1+ 2 i 0.6247(15) 0.5040(4) 0.6060(3) 0.066(1) 1. 0
H51 H1+ 2 i 0.6485(12) 0.4981(4) 0.6780(5) 0.066(1) 1. 0
H52 H1+ 2 i 0.3240(4) 0.2577(17) 0.5182(3) 0.066(1) 1. 0
H53 H1+ 2 i 0.1937(14) 0.2790(15) 0.5637(2) 0.066(1) 1. 0
H54 H1+ 2 i 0.1842(13) 0.1068(3) 0.5391(4) 0.066(1) 1. 0
loop_
_atom_site_aniso_label
_atom_site_aniso_type_symbol
_atom_site_aniso_U_11
_atom_site_aniso_U_22
_atom_site_aniso_U_33
_atom_site_aniso_U_12
_atom_site_aniso_U_13
_atom_site_aniso_U_23
Li1 Li1+ 0.027(2) 0.040(2) 0.026(2) 0.014(2) 0.004(1) 0.007(1)
N1 N2- 0.027(1) 0.024(1) 0.024(1) 0.011(1) 0.006(1) 0.005(1)
Si1 Si4+ 0.028(1) 0.028(1) 0.031(1) 0.014(1) 0.011(1) 0.012(1)
C1 C4- 0.034(1) 0.038(1) 0.047(1) 0.005(1) 0.007(1) 0.009(1)
C2 C4- 0.054(2) 0.041(1) 0.063(2) 0.027(1) 0.021(1) 0.030(1)
C3 C4- 0.041(1) 0.050(1) 0.041(1) 0.026(1) 0.021(1) 0.020(1)
N2 N2- 0.028(1) 0.025(1) 0.024(1) 0.011(1) 0.003(1) 0.005(1)
Si2 Si4+ 0.031(1) 0.044(1) 0.024(1) 0.017(1) 0.002(1) 0.007(1)
C4 C4- 0.046(1) 0.078(2) 0.043(1) 0.043(1) 0.004(1) 0.016(1)
C5 C4- 0.050(1) 0.061(2) 0.030(1) 0.028(1) 0.004(1) 0.014(1)
C6 C4- 0.041(1) 0.062(2) 0.040(1) 0.006(1) -0.003(1) 0.004(1)
Si3 Si4+ 0.038(1) 0.027(1) 0.032(1) 0.017(1) 0.010(1) 0.009(1)
C7 C4- 0.057(2) 0.044(1) 0.059(2) 0.032(1) -0.005(1) 0.015(1)
C8 C4- 0.071(2) 0.041(1) 0.048(1) 0.033(1) 0.025(1) 0.011(1)
C9 C4- 0.058(2) 0.036(1) 0.065(2) 0.023(1) 0.023(1) 0.020(1)
Li2 Li1+ 0.045(2) 0.030(2) 0.027(2) 0.022(2) 0.009(1) 0.010(1)
N3 N2- 0.027(1) 0.021(1) 0.022(1) 0.010(1) 0.004(1) 0.003(1)
Si4 Si4+ 0.027(1) 0.024(1) 0.025(1) 0.011(1) 0.007(1) 0.009(1)
C10 C4- 0.030(1) 0.036(1) 0.056(1) 0.012(1) 0.008(1) 0.015(1)
C11 C4- 0.043(1) 0.027(1) 0.036(1) 0.014(1) 0.009(1) 0.008(1)
C12 C4- 0.044(1) 0.039(1) 0.029(1) 0.014(1) 0.011(1) 0.016(1)
N4 N2- 0.026(1) 0.022(1) 0.023(1) 0.011(1) 0.003(1) 0.004(1)
Si5 Si4+ 0.026(1) 0.028(1) 0.025(1) 0.013(1) 0.002(1) 0.006(1)
C13 C4- 0.032(1) 0.046(1) 0.051(1) 0.008(1) 0.001(1) 0.019(1)
C14 C4- 0.038(1) 0.050(1) 0.042(1) 0.028(1) -0.003(1) -0.001(1)
C15 C4- 0.041(1) 0.045(1) 0.028(1) 0.019(1) -0.001(1) 0.006(1)
Si6 Si4+ 0.032(1) 0.028(1) 0.023(1) 0.018(1) 0.005(1) 0.005(1)
C16 C4- 0.042(1) 0.046(1) 0.032(1) 0.027(1) 0.011(1) 0.009(1)
C17 C4- 0.051(1) 0.030(1) 0.041(1) 0.021(1) 0.006(1) 0.004(1)
C18 C4- 0.044(1) 0.041(1) 0.032(1) 0.028(1) 0.001(1) 0.006(1)
#End of TTdata_159323-ICSD