
#(C) 2018 by FIZ Karlsruhe - Leibniz Institute for Information Infrastructure.  All rights reserved.
data_239924-ICSD
_database_code_ICSD 239924
_audit_creation_date 2017-08-01
_chemical_name_systematic 'Triammonium lithium hexamethyldisilazides'
_chemical_formula_structural '(N H3)3 Li N (Si (C H3)3)2'
_chemical_formula_sum 'C6 H27 Li1 N4 Si2'
_exptl_crystal_density_diffrn 0.95
_cell_measurement_temperature 100.
_publ_section_title

;
Introducing a hydrogen-bond donor into a weakly nucleophilic Broensted base:
alkali metal hexamethyldisilazides (MHMDS, M = Li, Na, K, Rb and Cs) with
ammonia
;
loop_
_citation_id
_citation_journal_full
_citation_year
_citation_journal_volume
_citation_page_first
_citation_page_last
_citation_journal_id_ASTM
primary 'Chemistry - A European Journal' 2016 22 12340 12346 CEUJED
loop_
_publ_author_name
'Neufeld, Roman'
'Michel, Reent'
'Herbst-Irmer, Regine'
'Schoene, Ralf'
'Stalke, Dietmar'
_cell_length_a 16.072(2)
_cell_length_b 8.633(2)
_cell_length_c 22.172(2)
_cell_angle_alpha 90
_cell_angle_beta 95.83(2)
_cell_angle_gamma 90
_cell_volume 3060.44
_cell_formula_units_Z 8
_symmetry_space_group_name_H-M 'C 1 2/c 1'
_symmetry_Int_Tables_number 15
_refine_ls_R_factor_all 0.0318
loop_
_symmetry_equiv_pos_site_id
_symmetry_equiv_pos_as_xyz
1 'x, -y, z+1/2'
2 '-x, -y, -z'
3 '-x, y, -z+1/2'
4 'x, y, z'
5 'x+1/2, -y+1/2, z+1/2'
6 '-x+1/2, -y+1/2, -z'
7 '-x+1/2, y+1/2, -z+1/2'
8 'x+1/2, y+1/2, z'
loop_
_atom_type_symbol
_atom_type_oxidation_number
Si4+ 4
Li1+ 1
N3- -3
C4- -4
H1+ 1
Si4+ 4
N3- -3
H1+ 1
C4- -4
H1+ 1
C4- -4
H1+ 1
N3- -3
H1+ 1
C4- -4
H1+ 1
N3- -3
H1+ 1
C4- -4
H1+ 1
C4- -4
H1+ 1
loop_
_atom_site_label
_atom_site_type_symbol
_atom_site_symmetry_multiplicity
_atom_site_Wyckoff_symbol
_atom_site_fract_x
_atom_site_fract_y
_atom_site_fract_z
_atom_site_B_iso_or_equiv
_atom_site_occupancy
_atom_site_attached_hydrogens
Si1 Si4+ 8 f 0.59543(3) 0.51713(5) 0.38150(2) 0.01781(13) 1 0
Li1 Li1+ 8 f 0.77851(16) 0.6334(3) 0.40796(12) 0.0231(6) 1 0
N1 N3- 8 f 0.65297(8) 0.67810(14) 0.39550(5) 0.0170(3) 1 0
C1 C4- 8 f 0.62008(12) 0.8602(2) 0.28003(8) 0.0373(5) 1 0
H1 H1+ 8 f 0.5997 0.9626 0.2664 0.056 1 0
H2 H1+ 8 f 0.5799 0.7809 0.2643 0.056 1 0
H3 H1+ 8 f 0.6743 0.8404 0.265 0.056 1 0
Si2 Si4+ 8 f 0.63218(3) 0.85401(5) 0.36564(2) 0.02036(13) 1 0
N2 N3- 8 f 0.81915(10) 0.40106(18) 0.42797(8) 0.0346(4) 1 0
H4 H1+ 8 f 0.7959(14) 0.322(2) 0.4111(10) 0.087(10) 1 0
H5 H1+ 8 f 0.8685(10) 0.397(3) 0.4177(11) 0.082(9) 1 0
H6 H1+ 8 f 0.8272(15) 0.377(3) 0.4654(6) 0.088(10) 1 0
C2 C4- 8 f 0.71650(11) 0.99883(19) 0.39057(9) 0.0330(4) 1 0
H7 H1+ 8 f 0.6983 1.1026 0.3771 0.049 1 0
H8 H1+ 8 f 0.7679 0.9717 0.3727 0.049 1 0
H9 H1+ 8 f 0.7272 0.9974 0.4349 0.049 1 0
C3 C4- 8 f 0.53233(11) 0.9446(2) 0.38719(9) 0.0343(4) 1 0
H10 H1+ 8 f 0.5284 1.0516 0.3724 0.051 1 0
H11 H1+ 8 f 0.5326 0.9439 0.4314 0.051 1 0
H12 H1+ 8 f 0.4842 0.8852 0.3689 0.051 1 0
N3 N3- 8 f 0.86484(9) 0.75594(18) 0.46627(7) 0.0278(3) 1 0
H13 H1+ 8 f 0.8579(11) 0.771(2) 0.5031(6) 0.040(6) 1 0
H14 H1+ 8 f 0.9115(10) 0.712(2) 0.4667(9) 0.054(7) 1 0
H15 H1+ 8 f 0.8711(12) 0.8450(17) 0.4518(8) 0.049(7) 1 0
C4 C4- 8 f 0.60429(10) 0.38256(18) 0.44888(7) 0.0240(4) 1 0
H16 H1+ 8 f 0.5838 0.2796 0.4361 0.036 1 0
H17 H1+ 8 f 0.5707 0.423 0.4799 0.036 1 0
H18 H1+ 8 f 0.6629 0.3752 0.4657 0.036 1 0
N4 N3- 8 f 0.82692(11) 0.66534(19) 0.32308(7) 0.0316(4) 1 0
H19 H1+ 8 f 0.8328(15) 0.7540(18) 0.3074(12) 0.090(10) 1 0
H20 H1+ 8 f 0.8724(10) 0.619(3) 0.3179(12) 0.081(9) 1 0
H21 H1+ 8 f 0.7917(13) 0.622(3) 0.2975(11) 0.090(10) 1 0
C5 C4- 8 f 0.47893(10) 0.5465(2) 0.36411(8) 0.0290(4) 1 0
H22 H1+ 8 f 0.4515 0.4457 0.3572 0.043 1 0
H23 H1+ 8 f 0.4681 0.6106 0.3277 0.043 1 0
H24 H1+ 8 f 0.4568 0.5983 0.3984 0.043 1 0
C6 C4- 8 f 0.62680(12) 0.40353(19) 0.31446(7) 0.0296(4) 1 0
H25 H1+ 8 f 0.5937 0.3082 0.3098 0.044 1 0
H26 H1+ 8 f 0.6863 0.3773 0.3212 0.044 1 0
H27 H1+ 8 f 0.6166 0.4663 0.2776 0.044 1 0
loop_
_atom_site_aniso_label
_atom_site_aniso_type_symbol
_atom_site_aniso_U_11
_atom_site_aniso_U_22
_atom_site_aniso_U_33
_atom_site_aniso_U_12
_atom_site_aniso_U_13
_atom_site_aniso_U_23
Si1 Si4+ 0.0212(2) 0.0152(2) 0.0173(2) -0.00244(17) 0.00283(17) 0.00026(16)
Li1 Li1+ 0.0215(14) 0.0239(13) 0.0242(14) 0.0002(11) 0.0033(11) 0.0002(11)
N1 N3- 0.0171(6) 0.0157(6) 0.0186(6) -0.0011(5) 0.0030(5) 0.0005(5)
C1 C4- 0.0385(11) 0.0389(10) 0.0338(10) -0.0002(9) -0.0002(8) 0.0163(8)
Si2 Si4+ 0.0176(2) 0.0155(2) 0.0280(3) -0.00027(17) 0.00226(18) 0.00295(17)
N2 N3- 0.0279(9) 0.0280(9) 0.0493(11) 0.0033(7) 0.0109(8) 0.0096(8)
C2 C4- 0.0259(9) 0.0171(8) 0.0554(12) -0.0011(7) 0.0020(8) 0.0017(8)
C3 C4- 0.0235(9) 0.0238(9) 0.0558(12) 0.0034(7) 0.0049(8) 0.0007(8)
N3 N3- 0.0264(8) 0.0341(9) 0.0231(8) -0.0020(7) 0.0040(6) -0.0015(6)
C4 C4- 0.0285(9) 0.0194(8) 0.0244(8) -0.0041(7) 0.0044(7) 0.0024(6)
N4 N3- 0.0384(10) 0.0292(9) 0.0289(8) 0.0031(7) 0.0120(7) -0.0006(7)
C5 C4- 0.0255(9) 0.0263(9) 0.0340(9) -0.0071(7) -0.0020(7) 0.0031(7)
C6 C4- 0.0428(11) 0.0223(8) 0.0241(9) -0.0021(8) 0.0053(8) -0.0029(7)
#End of TTdata_239924-ICSD