
#(C) 2017 by FIZ Karlsruhe - Leibniz Institute for Information Infrastructure.  All rights reserved.
data_260273-ICSD
_database_code_ICSD 260273
_audit_creation_date 2009-08-01
_chemical_name_systematic 'Lithium tris(trifluoromethyl-isobutylate)'
_chemical_formula_structural 'Li (O C (C F3)3) (H2 O)3'
_chemical_formula_sum 'C4 H6 F9 Li1 O4'
_exptl_crystal_density_diffrn 1.98
_cell_measurement_temperature 112.
_publ_section_title
'Snapshots of the Hydrolysis of the lithium alkoxide Li [O C (C F3)3]'
loop_
_citation_id
_citation_journal_full
_citation_year
_citation_journal_volume
_citation_page_first
_citation_page_last
_citation_journal_id_ASTM
primary 'Zeitschrift fuer Anorganische und Allgemeine Chemie (1950) (DE)' 2009
635 513 517 ZAACAB
loop_
_publ_author_name
'Raabe, I.'
'Wagner, K.'
'Santiso-Quinones, G.'
'Krossing, I.'
_cell_length_a 27.1863(8)
_cell_length_b 6.8688(2)
_cell_length_c 23.5996(6)
_cell_angle_alpha 90.
_cell_angle_beta 115.608(2)
_cell_angle_gamma 90.
_cell_volume 3974.04
_cell_formula_units_Z 16
_symmetry_space_group_name_H-M 'P 1 21/c 1'
_symmetry_Int_Tables_number 14
_refine_ls_R_factor_all 0.1058
loop_
_symmetry_equiv_pos_site_id
_symmetry_equiv_pos_as_xyz
1 'x, -y+1/2, z+1/2'
2 '-x, -y, -z'
3 '-x, y+1/2, -z+1/2'
4 'x, y, z'
loop_
_atom_type_symbol
_atom_type_oxidation_number
O2- -2
H1+ 1
O2- -2
H1+ 1
O2- -2
H1+ 1
O2- -2
H1+ 1
O2- -2
H1+ 1
O2- -2
H1+ 1
O2- -2
H1+ 1
O2- -2
H1+ 1
O2- -2
H1+ 1
O2- -2
H1+ 1
O2- -2
F1- -1
C2+ 2.5
Li1+ 1
H1+ 1
loop_
_atom_site_label
_atom_site_type_symbol
_atom_site_symmetry_multiplicity
_atom_site_Wyckoff_symbol
_atom_site_fract_x
_atom_site_fract_y
_atom_site_fract_z
_atom_site_B_iso_or_equiv
_atom_site_occupancy
_atom_site_attached_hydrogens
O1 O2- 4 e 0.8512(2) 0.3202(9) 0.2682(3) 0.0160(13) 1 0
O2 O2- 4 e 0.8288(3) 0.7085(11) 0.1782(3) 0.0282(16) 1 0
H1 H1+ 4 e 0.813(3) 0.595(7) 0.153(3) 0.01(2) 1 0
H2 H1+ 4 e 0.800(3) 0.802(13) 0.164(7) 0.16(9) 1 0
O3 O2- 4 e 0.9298(3) 0.7110(9) 0.3165(3) 0.0218(14) 1 0
H3 H1+ 4 e 0.941(4) 0.840(5) 0.313(4) 0.03(3) 1 0
H4 H1+ 4 e 0.925(5) 0.712(13) 0.354(3) 0.08(5) 1 0
O4 O2- 4 e 0.9731(2) 0.0216(9) 0.1787(3) 0.0164(13) 1 0
O5 O2- 4 e 0.9338(2) 0.4521(9) 0.2122(3) 0.0182(14) 1 0
H5 H1+ 4 e 0.942(4) 0.491(15) 0.181(2) 0.03(3) 1 0
H6 H1+ 4 e 0.964(2) 0.468(14) 0.2523(18) 0.02(2) 1 0
O6 O2- 4 e 0.8472(2) 0.1109(9) 0.1715(3) 0.0210(14) 1 0
H7 H1+ 4 e 0.823(3) 0.133(13) 0.1283(11) 0.04(3) 1 0
H8 H1+ 4 e 0.836(3) 0.203(11) 0.195(3) 0.03(3) 1 0
O7 O2- 4 e 0.9447(2) 0.0981(9) 0.2940(3) 0.0177(14) 1 0
H9 H1+ 4 e 0.9810(13) 0.119(17) 0.326(4) 0.06(4) 1 0
H10 H1+ 4 e 0.922(3) 0.171(13) 0.308(4) 0.03(3) 1 0
O8 O2- 4 e 1.0497(2) 0.1756(9) 0.3723(2) 0.0147(13) 1 0
O9 O2- 4 e 0.6471(2) 0.3241(9) 0.4181(3) 0.0166(13) 1 0
O10 O2- 4 e 0.6735(3) 0.7129(10) 0.3561(3) 0.0289(16) 1 0
O11 O2- 4 e 0.5688(3) 0.7230(9) 0.3869(3) 0.0222(15) 1 0
H11 H1+ 4 e 0.565(4) 0.844(7) 0.365(4) 0.03(3) 1 0
H12 H1+ 4 e 0.583(6) 0.759(13) 0.4304(13) 0.11(6) 1 0
O12 O2- 4 e 0.5675(2) 0.4684(9) 0.2789(3) 0.0168(13) 1 0
H13 H1+ 4 e 0.5311(17) 0.440(17) 0.274(5) 0.05(3) 1 0
H14 H1+ 4 e 0.568(5) 0.43(3) 0.241(4) 0.16(9) 1 0
O13 O2- 4 e 0.6526(2) 0.1202(10) 0.3229(3) 0.0196(14) 1 0
H15 H1+ 4 e 0.656(9) -0.017(6) 0.331(10) 0.19(10) 1 0
H16 H1+ 4 e 0.674(5) 0.15(2) 0.301(6) 0.10(6) 1 0
O14 O2- 4 e 0.5556(2) 0.1086(9) 0.3490(3) 0.0159(13) 1 0
H17 H1+ 4 e 0.5196(13) 0.144(13) 0.343(4) 0.02(2) 1 0
H18 H1+ 4 e 0.580(3) 0.187(15) 0.383(4) 0.07(5) 1 0
O15 O2- 4 e 0.5263(2) 0.0412(9) 0.2070(3) 0.0160(13) 1 0
H19 H1+ 4 e 0.496(5) 0.07(2) 0.167(3) 0.16(9) 1 0
H20 H1+ 4 e 0.544(4) -0.073(10) 0.201(5) 0.05(4) 1 0
O16 O2- 4 e 0.5483(2) 0.6988(9) 0.1765(3) 0.0157(13) 1 0
F1 F1- 4 e 0.7817(2) 0.0446(9) 0.3395(3) 0.0344(15) 1 0
F2 F1- 4 e 0.8104(3) -0.0359(8) 0.2702(3) 0.0338(14) 1 0
F3 F1- 4 e 0.8676(2) 0.0367(8) 0.3634(3) 0.0288(13) 1 0
F4 F1- 4 e 0.8938(2) 0.4126(9) 0.3888(3) 0.0372(15) 1 0
F5 F1- 4 e 0.8185(3) 0.3866(10) 0.3964(3) 0.0435(17) 1 0
F6 F1- 4 e 0.8304(3) 0.6180(8) 0.3414(3) 0.0338(14) 1 0
F7 F1- 4 e 0.7355(3) 0.2261(12) 0.2092(3) 0.057(2) 1 0
F8 F1- 4 e 0.7281(2) 0.3765(10) 0.2852(3) 0.0464(18) 1 0
F9 F1- 4 e 0.7572(2) 0.5287(9) 0.2269(3) 0.0407(16) 1 0
F10 F1- 4 e 1.1305(3) 0.4186(10) 0.4460(4) 0.070(3) 1 0
F11 F1- 4 e 1.1656(2) 0.1470(12) 0.4456(3) 0.054(2) 1 0
F12 F1- 4 e 1.1568(2) 0.2347(11) 0.5264(3) 0.0443(18) 1 0
F13 F1- 4 e 1.1080(3) -0.1176(9) 0.5101(3) 0.059(2) 1 0
F14 F1- 4 e 1.1043(3) -0.1651(8) 0.4201(3) 0.0392(16) 1 0
F15 F1- 4 e 1.0313(3) -0.1560(9) 0.4305(4) 0.0505(19) 1 0
F16 F1- 4 e 1.0377(4) 0.4302(9) 0.4582(3) 0.059(2) 1 0
F17 F1- 4 e 0.9894(2) 0.1771(11) 0.4403(3) 0.0448(18) 1 0
F18 F1- 4 e 1.0592(2) 0.2081(10) 0.5277(2) 0.0381(16) 1 0
F19 F1- 4 e 0.6314(2) 0.0340(8) 0.4874(2) 0.0250(12) 1 0
F20 F1- 4 e 0.7024(3) -0.0326(8) 0.4718(3) 0.0366(15) 1 0
F21 F1- 4 e 0.7118(3) 0.0599(9) 0.5621(3) 0.0394(16) 1 0
F22 F1- 4 e 0.7821(2) 0.2770(10) 0.5395(3) 0.0399(16) 1 0
F23 F1- 4 e 0.7500(2) 0.2534(11) 0.4405(3) 0.0485(18) 1 0
F24 F1- 4 e 0.7503(2) 0.5293(10) 0.4812(3) 0.0451(17) 1 0
F25 F1- 4 e 0.7137(3) 0.4492(10) 0.5809(3) 0.0493(19) 1 0
F26 F1- 4 e 0.6286(3) 0.3872(9) 0.5302(3) 0.0431(17) 1 0
F27 F1- 4 e 0.6641(2) 0.6181(8) 0.5015(3) 0.0316(14) 1 0
F28 F1- 4 e 0.6567(2) 0.7560(9) 0.1309(3) 0.0355(15) 1 0
F29 F1- 4 e 0.6574(2) 0.7474(11) 0.2215(3) 0.0450(18) 1 0
F30 F1- 4 e 0.6187(3) 0.9801(9) 0.1588(4) 0.055(2) 1 0
F31 F1- 4 e 0.5377(2) 0.3555(8) 0.1163(3) 0.0402(16) 1 0
F32 F1- 4 e 0.6009(3) 0.4193(9) 0.0889(3) 0.0500(19) 1 0
F33 F1- 4 e 0.6185(3) 0.3911(9) 0.1862(3) 0.0414(16) 1 0
F34 F1- 4 e 0.5186(3) 0.9389(9) 0.0751(3) 0.054(2) 1 0
F35 F1- 4 e 0.4886(2) 0.6549(10) 0.0442(3) 0.0392(16) 1 0
F36 F1- 4 e 0.5565(2) 0.7619(10) 0.0305(2) 0.0358(15) 1 0
C1 C2+ 4 e 0.8182(4) 0.2997(13) 0.2972(4) 0.020(2) 1 0
C2 C2+ 4 e 0.8195(4) 0.0860(13) 0.3186(4) 0.019(2) 1 0
C3 C2+ 4 e 0.8393(4) 0.4315(14) 0.3568(4) 0.024(2) 1 0
C4 C2+ 4 e 0.7590(4) 0.3577(15) 0.2533(5) 0.026(2) 1 0
C5 C2+ 4 e 1.0747(3) 0.1446(13) 0.4362(4) 0.0165(19) 1 0
C6 C2+ 4 e 1.1320(4) 0.2355(14) 0.4649(4) 0.024(2) 1 0
C7 C2+ 4 e 1.0797(4) -0.0746(14) 0.4502(4) 0.023(2) 1 0
C8 C2+ 4 e 1.0399(4) 0.2430(13) 0.4663(4) 0.021(2) 1 0
C9 C2+ 4 e 0.6835(3) 0.3000(14) 0.4797(4) 0.018(2) 1 0
C10 C2+ 4 e 0.6829(4) 0.0857(14) 0.5005(4) 0.022(2) 1 0
C11 C2+ 4 e 0.7423(4) 0.3395(15) 0.4856(4) 0.023(2) 1 0
C12 C2+ 4 e 0.6720(4) 0.4388(14) 0.5235(4) 0.026(2) 1 0
C13 C2+ 4 e 0.5725(3) 0.6790(13) 0.1366(4) 0.0172(19) 1 0
C14 C2+ 4 e 0.6277(4) 0.7892(14) 0.1624(5) 0.026(2) 1 0
C15 C2+ 4 e 0.5826(4) 0.4582(14) 0.1314(4) 0.022(2) 1 0
C16 C2+ 4 e 0.5346(4) 0.7571(14) 0.0707(4) 0.021(2) 1 0
Li1 Li1+ 4 e 0.8790(6) 0.551(2) 0.2430(8) 0.025(4) 1 0
Li2 Li1+ 4 e 0.9252(6) 0.163(2) 0.2031(7) 0.023(4) 1 0
Li3 Li1+ 4 e 0.6219(6) 0.558(2) 0.3682(7) 0.020(3) 1 0
Li4 Li1+ 4 e 0.5743(6) 0.180(2) 0.2804(6) 0.021(3) 1 0
H21 H1+ 4 e 0.973(4) -0.091(9) 0.154(4) 0.03(3) 1 0
H22 H1+ 4 e 0.7080(17) 0.661(12) 0.385(3) 0.01(2) 1 0
H23 H1+ 4 e 0.962(10) -0.027(16) 0.209(8) 0.25(14) 1 0
H24 H1+ 4 e 0.681(4) 0.78(3) 0.326(6) 0.14(8) 1 0
loop_
_atom_site_aniso_label
_atom_site_aniso_type_symbol
_atom_site_aniso_U_11
_atom_site_aniso_U_22
_atom_site_aniso_U_33
_atom_site_aniso_U_12
_atom_site_aniso_U_13
_atom_site_aniso_U_23
O1 O2- 0.017(3) 0.017(3) 0.015(3) -0.003(3) 0.008(3) -0.001(3)
O2 O2- 0.030(4) 0.027(4) 0.028(4) 0.002(3) 0.013(3) 0.004(3)
O3 O2- 0.026(4) 0.017(4) 0.027(4) -0.001(3) 0.015(3) -0.001(3)
O4 O2- 0.017(3) 0.012(3) 0.019(3) 0.000(3) 0.006(3) -0.004(3)
O5 O2- 0.021(3) 0.017(3) 0.017(3) -0.001(3) 0.008(3) 0.000(3)
O6 O2- 0.019(3) 0.023(4) 0.019(3) 0.001(3) 0.007(3) 0.002(3)
O7 O2- 0.014(3) 0.017(3) 0.019(3) 0.003(3) 0.003(3) -0.001(3)
O8 O2- 0.017(3) 0.019(3) 0.005(3) -0.005(3) 0.003(2) -0.003(2)
O9 O2- 0.016(3) 0.015(3) 0.015(3) -0.001(3) 0.004(3) 0.001(3)
O10 O2- 0.027(4) 0.023(4) 0.036(4) 0.000(3) 0.014(3) 0.002(3)
O11 O2- 0.024(4) 0.019(4) 0.021(4) -0.001(3) 0.007(3) -0.003(3)
O12 O2- 0.016(3) 0.017(3) 0.016(3) 0.004(3) 0.006(3) 0.001(3)
O13 O2- 0.016(3) 0.027(4) 0.016(3) 0.001(3) 0.006(3) 0.005(3)
O14 O2- 0.015(3) 0.015(3) 0.019(3) 0.002(3) 0.008(3) 0.000(3)
O15 O2- 0.016(3) 0.014(3) 0.016(3) -0.003(3) 0.005(3) -0.004(3)
O16 O2- 0.017(3) 0.019(3) 0.014(3) 0.001(3) 0.010(3) 0.001(3)
F1 F1- 0.037(3) 0.028(3) 0.052(4) 0.001(3) 0.033(3) 0.011(3)
F2 F1- 0.057(4) 0.018(3) 0.026(3) -0.006(3) 0.018(3) -0.009(3)
F3 F1- 0.032(3) 0.022(3) 0.031(3) 0.006(3) 0.013(3) 0.007(3)
F4 F1- 0.034(3) 0.034(4) 0.031(3) -0.004(3) 0.002(3) -0.009(3)
F5 F1- 0.064(4) 0.043(4) 0.042(4) -0.020(3) 0.040(3) -0.011(3)
F6 F1- 0.052(4) 0.014(3) 0.038(4) 0.001(3) 0.023(3) -0.001(3)
F7 F1- 0.035(4) 0.063(5) 0.044(4) 0.000(4) -0.010(3) -0.011(4)
F8 F1- 0.031(3) 0.057(4) 0.062(4) 0.016(3) 0.030(3) 0.033(4)
F9 F1- 0.030(3) 0.042(4) 0.050(4) 0.014(3) 0.017(3) 0.026(3)
F10 F1- 0.040(4) 0.026(4) 0.098(6) -0.018(3) -0.013(4) 0.022(4)
F11 F1- 0.033(4) 0.086(6) 0.052(4) -0.032(4) 0.027(3) -0.035(4)
F12 F1- 0.029(3) 0.080(5) 0.016(3) -0.015(3) 0.002(3) -0.008(3)
F13 F1- 0.121(7) 0.021(3) 0.014(3) 0.013(4) 0.010(4) 0.006(3)
F14 F1- 0.058(4) 0.023(3) 0.054(4) 0.018(3) 0.040(4) 0.010(3)
F15 F1- 0.034(4) 0.018(3) 0.090(5) -0.004(3) 0.019(4) 0.004(3)
F16 F1- 0.128(7) 0.020(4) 0.072(5) 0.021(4) 0.083(5) 0.006(3)
F17 F1- 0.019(3) 0.069(5) 0.042(4) 0.001(3) 0.009(3) -0.020(4)
F18 F1- 0.037(3) 0.063(4) 0.018(3) -0.001(3) 0.015(3) -0.003(3)
F19 F1- 0.028(3) 0.016(3) 0.034(3) -0.007(2) 0.016(3) 0.001(2)
F20 F1- 0.056(4) 0.018(3) 0.049(4) 0.008(3) 0.034(3) -0.005(3)
F21 F1- 0.047(4) 0.029(3) 0.025(3) 0.001(3) 0.000(3) 0.017(3)
F22 F1- 0.022(3) 0.050(4) 0.034(3) -0.004(3) 0.000(3) 0.001(3)
F23 F1- 0.031(3) 0.070(5) 0.054(4) -0.015(3) 0.028(3) -0.010(4)
F24 F1- 0.025(3) 0.042(4) 0.060(4) -0.014(3) 0.010(3) 0.013(3)
F25 F1- 0.066(5) 0.044(4) 0.018(3) 0.022(4) -0.001(3) -0.005(3)
F26 F1- 0.049(4) 0.029(3) 0.067(5) -0.005(3) 0.040(4) -0.014(3)
F27 F1- 0.048(4) 0.013(3) 0.030(3) 0.001(3) 0.013(3) -0.001(2)
F28 F1- 0.030(3) 0.049(4) 0.038(3) -0.010(3) 0.025(3) -0.006(3)
F29 F1- 0.029(3) 0.072(5) 0.023(3) -0.023(3) 0.001(3) -0.005(3)
F30 F1- 0.033(4) 0.019(3) 0.111(6) -0.002(3) 0.027(4) 0.000(4)
F31 F1- 0.033(3) 0.015(3) 0.069(5) -0.006(3) 0.018(3) -0.009(3)
F32 F1- 0.089(5) 0.029(4) 0.065(5) 0.005(4) 0.065(4) -0.002(3)
F33 F1- 0.051(4) 0.026(3) 0.033(3) 0.020(3) 0.004(3) 0.004(3)
F34 F1- 0.090(6) 0.028(4) 0.031(4) 0.031(4) 0.013(4) 0.005(3)
F35 F1- 0.027(3) 0.053(4) 0.028(3) 0.000(3) 0.002(3) 0.015(3)
F36 F1- 0.038(3) 0.056(4) 0.018(3) 0.000(3) 0.016(3) 0.003(3)
C1 C2+ 0.021(5) 0.013(5) 0.029(5) 0.001(4) 0.013(4) 0.003(4)
C2 C2+ 0.022(5) 0.013(5) 0.027(5) -0.005(4) 0.016(4) 0.005(4)
C3 C2+ 0.033(6) 0.022(5) 0.025(5) 0.000(4) 0.021(5) 0.002(4)
C4 C2+ 0.027(5) 0.024(6) 0.036(6) 0.005(5) 0.021(5) 0.011(5)
C5 C2+ 0.016(4) 0.015(5) 0.016(5) 0.004(4) 0.003(4) 0.005(4)
C6 C2+ 0.024(5) 0.023(5) 0.017(5) 0.002(4) 0.002(4) -0.002(4)
C7 C2+ 0.030(5) 0.020(5) 0.010(4) 0.003(4) 0.001(4) 0.005(4)
C8 C2+ 0.031(5) 0.015(5) 0.009(4) -0.005(4) 0.002(4) 0.003(4)
C9 C2+ 0.010(4) 0.025(5) 0.013(4) 0.000(4) -0.002(4) 0.001(4)
C10 C2+ 0.026(5) 0.022(5) 0.019(5) 0.004(4) 0.012(4) -0.002(4)
C11 C2+ 0.019(5) 0.032(6) 0.015(5) -0.003(4) 0.004(4) 0.010(4)
C12 C2+ 0.029(6) 0.021(5) 0.024(5) 0.001(4) 0.009(4) -0.001(4)
C13 C2+ 0.017(5) 0.012(5) 0.022(5) 0.002(4) 0.007(4) 0.001(4)
C14 C2+ 0.026(5) 0.020(5) 0.035(6) 0.002(4) 0.018(5) 0.004(4)
C15 C2+ 0.024(5) 0.023(5) 0.021(5) 0.007(4) 0.010(4) 0.001(4)
C16 C2+ 0.024(5) 0.020(5) 0.024(5) -0.010(4) 0.014(4) -0.007(4)
Li1 Li1+ 0.019(8) 0.021(8) 0.031(9) -0.005(7) 0.009(7) 0.009(7)
Li2 Li1+ 0.015(8) 0.027(9) 0.028(9) -0.001(7) 0.009(7) 0.001(7)
Li3 Li1+ 0.028(8) 0.020(8) 0.012(7) 0.000(7) 0.009(6) -0.001(6)
Li4 Li1+ 0.024(8) 0.021(8) 0.009(7) 0.006(7) -0.001(6) -0.011(6)
#End of TTdata_260273-ICSD