
#(C) 2018 by FIZ Karlsruhe - Leibniz Institute for Information Infrastructure.  All rights reserved.
data_425947-ICSD
_database_code_ICSD 425947
_audit_creation_date 2014-02-01
_chemical_name_systematic 'Lithium guanidinate'
_chemical_formula_structural '(C (N H2) (N H)2) Li'
_chemical_formula_sum 'C1 H4 Li1 N3'
_exptl_crystal_density_diffrn 1.49
_cell_measurement_temperature 100.
_publ_section_title
'Completing a family: Li C N3 H4, the lightest alkali metal guanidinate'
loop_
_citation_id
_citation_journal_full
_citation_year
_citation_journal_volume
_citation_page_first
_citation_page_last
_citation_journal_id_ASTM
primary 'Dalton Transactions' 2013 42 15080 15087 DTARAF
loop_
_publ_author_name
'Peter Klaus Sawinski'
'Volker L. Deringer'
'Richard Dronskowski'
_cell_length_a 7.2506(19)
_cell_length_b 4.5319(12)
_cell_length_c 9.051(2)
_cell_angle_alpha 90.
_cell_angle_beta 103.315(3)
_cell_angle_gamma 90.
_cell_volume 289.41
_cell_formula_units_Z 4
_symmetry_space_group_name_H-M 'P 1 21/c 1'
_symmetry_Int_Tables_number 14
_refine_ls_R_factor_all 0.0347
loop_
_symmetry_equiv_pos_site_id
_symmetry_equiv_pos_as_xyz
1 'x, -y+1/2, z+1/2'
2 '-x, -y, -z'
3 '-x, y+1/2, -z+1/2'
4 'x, y, z'
loop_
_atom_type_symbol
_atom_type_oxidation_number
Li1+ 1
C4+ 4
N3- -3
H1+ 1
loop_
_atom_site_label
_atom_site_type_symbol
_atom_site_symmetry_multiplicity
_atom_site_Wyckoff_symbol
_atom_site_fract_x
_atom_site_fract_y
_atom_site_fract_z
_atom_site_B_iso_or_equiv
_atom_site_occupancy
_atom_site_attached_hydrogens
Li1 Li1+ 4 e 0.8501(3) 0.8805(5) 0.5194(3) 0.0145(5) 1 0
C1 C4+ 4 e 0.75160(17) 0.3710(3) 0.30125(14) 0.0104(3) 1 0
N1 N3- 4 e 0.68905(16) 0.5133(3) 0.41946(13) 0.0114(3) 1 0
N2 N3- 4 e 0.68458(16) 0.4525(3) 0.15759(12) 0.0121(3) 1 0
N3 N3- 4 e 0.88052(15) 0.1616(2) 0.34625(12) 0.0120(3) 1 0
H1 H1+ 4 e 0.685(2) 0.386(4) 0.496(2) 0.020(2) 1 0
H2 H1+ 4 e 0.580(3) 0.606(4) 0.3875(19) 0.020(2) 1 0
H3 H1+ 4 e 0.596(3) 0.583(4) 0.1517(18) 0.020(2) 1 0
H4 H1+ 4 e 0.908(2) 0.080(4) 0.265(2) 0.020(2) 1 0
loop_
_atom_site_aniso_label
_atom_site_aniso_type_symbol
_atom_site_aniso_U_11
_atom_site_aniso_U_22
_atom_site_aniso_U_33
_atom_site_aniso_U_12
_atom_site_aniso_U_13
_atom_site_aniso_U_23
Li1 Li1+ 0.0146(11) 0.0160(11) 0.0131(11) 0.0012(9) 0.0037(9) -0.0005(9)
C1 C4+ 0.0099(6) 0.0095(6) 0.0120(6) -0.0037(5) 0.0032(5) -0.0011(5)
N1 N3- 0.0118(6) 0.0124(6) 0.0105(6) 0.0018(4) 0.0034(4) 0.0010(4)
N2 N3- 0.0110(6) 0.0133(6) 0.0119(6) 0.0025(4) 0.0024(4) 0.0017(4)
N3 N3- 0.0132(6) 0.0131(6) 0.0102(6) 0.0018(4) 0.0036(4) -0.0004(4)
#End of TTdata_425947-ICSD