
#(C) 2019 by FIZ Karlsruhe - Leibniz Institute for Information Infrastructure.  All rights reserved.
data_100140-ICSD
_database_code_ICSD 100140
_audit_creation_date 1980-01-01
_audit_update_record 1998-06-26
_chemical_name_systematic 'Sodium aluminium dihydroxide carbonate'
_chemical_formula_structural 'Na Al (O H)2 (C O3)'
_chemical_formula_sum 'C1 H2 Al1 Na1 O5'
_chemical_name_mineral Dawsonite
_exptl_crystal_density_diffrn 2.43
_publ_section_title 'Dawsonite: new mineral data and structure refinement'
loop_
_citation_id
_citation_journal_full
_citation_year
_citation_journal_volume
_citation_page_first
_citation_page_last
_citation_journal_id_ASTM
primary 'Neues Jahrbuch fuer Mineralogie, Monatshefte' 1977 1977 381 397 NJMMAW
loop_
_publ_author_name
'Corazza, E.'
'Sabelli, C.'
'Vannucci, S.'
_cell_length_a 6.759(1)
_cell_length_b 5.585(1)
_cell_length_c 10.425(1)
_cell_angle_alpha 90.
_cell_angle_beta 90.
_cell_angle_gamma 90.
_cell_volume 393.53
_cell_formula_units_Z 4
_symmetry_space_group_name_H-M 'I m m a'
_symmetry_Int_Tables_number 74
_refine_ls_R_factor_all 0.058
loop_
_symmetry_equiv_pos_site_id
_symmetry_equiv_pos_as_xyz
1 '-x, y+1/2, -z'
2 '-x, -y+1/2, z'
3 '-x, y, z'
4 '-x, -y, -z'
5 'x, -y+1/2, z'
6 'x, y+1/2, -z'
7 'x, -y, -z'
8 'x, y, z'
9 '-x+1/2, y, -z+1/2'
10 '-x+1/2, -y, z+1/2'
11 '-x+1/2, y+1/2, z+1/2'
12 '-x+1/2, -y+1/2, -z+1/2'
13 'x+1/2, -y, z+1/2'
14 'x+1/2, y, -z+1/2'
15 'x+1/2, -y+1/2, -z+1/2'
16 'x+1/2, y+1/2, z+1/2'
loop_
_atom_type_symbol
_atom_type_oxidation_number
Al3+ 3
Na1+ 1
C4+ 4
O2- -2
H1+ 1
loop_
_atom_site_label
_atom_site_type_symbol
_atom_site_symmetry_multiplicity
_atom_site_Wyckoff_symbol
_atom_site_fract_x
_atom_site_fract_y
_atom_site_fract_z
_atom_site_B_iso_or_equiv
_atom_site_occupancy
_atom_site_attached_hydrogens
Al1 Al3+ 4 b 0 0 0.5 . 1. 0
Na1 Na1+ 4 d 0.25 0.75 0.25 . 1. 0
C1 C4+ 4 e 0 0.25 0.2526(4) . 1. 0
O1 O2- 4 e 0 0.25 0.1326(3) . 1. 0
O2 O2- 8 h 0 0.0474(4) 0.3156(2) . 1. 0
O3 O2- 8 i 0.1811 0.25 0.5250(2) . 1. 0
H1 H1+ 8 i 0.275(6) 0.25 0.478(3) 1.18 1. 0
loop_
_atom_site_aniso_label
_atom_site_aniso_type_symbol
_atom_site_aniso_beta_11
_atom_site_aniso_beta_22
_atom_site_aniso_beta_33
_atom_site_aniso_beta_12
_atom_site_aniso_beta_13
_atom_site_aniso_beta_23
Al1 Al3+ 0.0052(2) 0.0034(3) 0.0008(1) 0 0 -.0001(1)
Na1 Na1+ 0.0115(5) 0.0110(6) 0.0027(2) 0 0.0026(2) 0
C1 C4+ 0.0039(8) 0.0067(12) 0.0013(3) 0 0 0
O1 O2- 0.0081(7) 0.0141(11) 0.0012(2) 0 0 0
O2 O2- 0.0089(5) 0.0052(6) 0.0013(2) 0 0 0.0006(2)
O3 O2- 0.0050(4) 0.0054(5) 0.0015(2) 0 0.0003(2) 0
#End of TTdata_100140-ICSD