
#(C) 2019 by FIZ Karlsruhe - Leibniz Institute for Information Infrastructure.  All rights reserved.
data_151153-ICSD
_database_code_ICSD 151153
_audit_creation_date 2006-04-01
_audit_update_record 2008-08-01
_chemical_name_systematic 'Disodium squarate trihydrate'
_chemical_formula_structural 'Na2 (C4 O4) (H2 O)3'
_chemical_formula_sum 'C4 H6 Na2 O7'
_exptl_crystal_density_diffrn 1.84
_cell_measurement_temperature 291.
_publ_section_title
'Crystal structure of sodium squarate trihydrate, Na2 C4 O4 * 3(H2 O)'
loop_
_citation_id
_citation_journal_full
_citation_year
_citation_journal_volume
_citation_page_first
_citation_page_last
_citation_journal_id_ASTM
primary 'Zeitschrift fuer Kristallographie' 1997 212 302 304 ZEKRDZ
loop_
_publ_author_name
'Busetti, V.'
'Marcuzzi, F.'
_cell_length_a 16.252(2)
_cell_length_b 3.549(1)
_cell_length_c 14.675(2)
_cell_angle_alpha 90.
_cell_angle_beta 115.56(3)
_cell_angle_gamma 90.
_cell_volume 763.59
_cell_formula_units_Z 4
_symmetry_space_group_name_H-M 'C 1 2/c 1'
_symmetry_Int_Tables_number 15
_refine_ls_R_factor_all 0.0365
loop_
_symmetry_equiv_pos_site_id
_symmetry_equiv_pos_as_xyz
1 'x, -y, z+1/2'
2 '-x, -y, -z'
3 '-x, y, -z+1/2'
4 'x, y, z'
5 'x+1/2, -y+1/2, z+1/2'
6 '-x+1/2, -y+1/2, -z'
7 '-x+1/2, y+1/2, -z+1/2'
8 'x+1/2, y+1/2, z'
loop_
_atom_type_symbol
_atom_type_oxidation_number
Na1+ 1
O2- -2
C1+ 1.5
H1+ 1
loop_
_atom_site_label
_atom_site_type_symbol
_atom_site_symmetry_multiplicity
_atom_site_Wyckoff_symbol
_atom_site_fract_x
_atom_site_fract_y
_atom_site_fract_z
_atom_site_B_iso_or_equiv
_atom_site_occupancy
_atom_site_attached_hydrogens
Na1 Na1+ 8 f 0.3532(1) 0.2442(3) 0.2807(1) 1.72(4) 1. 0
O1 O2- 8 f 0.2315(1) 0.2428(6) 0.3359(1) 1.62(6) 1. 0
O2 O2- 8 f 0.1056(1) 0.0112(6) 0.4466(1) 1.99(7) 1. 0
O3 O2- 4 e 0.5 0.2318(9) 0.25 2.93(6) 1. 0
O4 O2- 8 f 0.4262(1) 0.7620(6) 0.3947(1) 1.89(7) 1. 0
C1 C1+ 8 f 0.2421(2) 0.2479(8) 0.4257(2) 1.19(8) 1. 0
C2 C1+ 8 f 0.1847(2) 0.1445(8) 0.4766(2) 1.44(8) 1. 0
H1 H1+ 8 f 0.475(3) 0.354(9) 0.202(3) 5.4(8) 1. 0
H2 H1+ 8 f 0.477(2) 0.748(9) 0.413(2) 3.3(8) 1. 0
H3 H1+ 8 f 0.415(2) 0.711(9) 0.442(3) 3.5(8) 1. 0
#End of TTdata_151153-ICSD