
#(C) 2019 by FIZ Karlsruhe - Leibniz Institute for Information Infrastructure.  All rights reserved.
data_151272-ICSD
_database_code_ICSD 151272
_audit_creation_date 2006-10-01
_audit_update_record 2008-08-01
_chemical_name_systematic 'Trisodium hexaformatochromate(III) tetrahydrate'
_chemical_formula_structural 'Na3 (Cr (H C O O)6) (H2 O)4'
_chemical_formula_sum 'C6 H14 Cr1 Na3 O16'
_exptl_crystal_density_diffrn 1.85
_cell_measurement_temperature 298.
_publ_section_title

;
Structures of trisodium hexakis(formato)chromate(III) tetrahydrate and
trisodium hexakis(formato)molybdate(III)
;
loop_
_citation_id
_citation_journal_full
_citation_year
_citation_journal_volume
_citation_page_first
_citation_page_last
_citation_journal_id_ASTM
primary 'Acta Crystallographica, Section C: Crystal Structure Communications'
1988 44 1362 1365 ACSCEE
loop_
_publ_author_name
'Hazell, A.'
_cell_length_a 6.463(1)
_cell_length_b 7.678(2)
_cell_length_c 8.741(2)
_cell_angle_alpha 101.46(1)
_cell_angle_beta 97.26(1)
_cell_angle_gamma 78.74(1)
_cell_volume 415.19
_cell_formula_units_Z 1
_symmetry_space_group_name_H-M 'P -1'
_symmetry_Int_Tables_number 2
_refine_ls_R_factor_all 0.023
loop_
_symmetry_equiv_pos_site_id
_symmetry_equiv_pos_as_xyz
1 '-x, -y, -z'
2 'x, y, z'
loop_
_atom_type_symbol
_atom_type_oxidation_number
Cr3+ 3
Na1+ 1
O2- -2
C4+ 4
H1- -1
H1+ 1
loop_
_atom_site_label
_atom_site_type_symbol
_atom_site_symmetry_multiplicity
_atom_site_Wyckoff_symbol
_atom_site_fract_x
_atom_site_fract_y
_atom_site_fract_z
_atom_site_B_iso_or_equiv
_atom_site_occupancy
_atom_site_attached_hydrogens
Cr1 Cr3+ 1 a 0 0 0 0.0157(1) 1. 0
Na1 Na1+ 1 g 0 0.5 0.5 0.0372(5) 1. 0
Na2 Na1+ 2 i 0.2899(1) -0.4464(1) -0.1259(1) 0.0286(3) 1. 0
O1 O2- 2 i 0.0949(1) 0.2325(1) 0.0845(1) 0.0236(4) 1. 0
O2 O2- 2 i 0.3271(2) 0.4170(1) 0.1078(1) 0.0274(5) 1. 0
O3 O2- 2 i 0.2697(1) -0.1502(1) 0.0646(1) 0.0227(4) 1. 0
O4 O2- 2 i 0.5185(2) -0.2471(1) 0.2421(1) 0.0350(6) 1. 0
O5 O2- 2 i 0.1024(2) 0.0102(1) -0.2029(1) 0.0251(5) 1. 0
O6 O2- 2 i 0.2309(2) -0.2722(1) -0.3224(1) 0.0388(6) 1. 0
O7 O2- 2 i 0.0159(2) 0.3793(2) -0.2690(1) 0.0312(6) 1. 0
O8 O2- 2 i 0.3317(3) 0.3074(2) 0.4584(2) 0.0510(8) 1. 0
C1 C4+ 2 i 0.2792(2) 0.2648(2) 0.0808(2) 0.0240(6) 1. 0
C2 C4+ 2 i 0.3638(2) -0.1399(2) 0.2038(2) 0.0260(6) 1. 0
C3 C4+ 2 i 0.1812(3) -0.1085(2) -0.3150(2) 0.0314(7) 1. 0
H1 H1- 2 i 0.390(3) 0.165(2) 0.053(2) 0.0279(42) 1. 0
H2 H1- 2 i 0.318(3) -0.046(3) 0.284(2) 0.0350(47) 1. 0
H3 H1- 2 i 0.202(3) -0.049(3) -0.414(2) 0.0496(61) 1. 0
H4 H1+ 2 i 0.034(4) 0.283(3) -0.257(3) 0.0593(71) 1. 0
H5 H1+ 2 i -0.082(4) 0.418(3) -0.230(3) 0.0495(64) 1. 0
H6 H1+ 2 i 0.410(6) 0.341(4) 0.443(4) 0.1005(146) 1. 0
H7 H1+ 2 i 0.380(4) 0.283(4) 0.548(3) 0.0709(78) 1. 0
#End of TTdata_151272-ICSD