
#(C) 2019 by FIZ Karlsruhe - Leibniz Institute for Information Infrastructure.  All rights reserved.
data_151233-ICSD
_database_code_ICSD 151233
_audit_creation_date 2006-10-01
_audit_update_record 2012-02-01
_chemical_name_systematic 'Sodium formate'
_chemical_formula_structural 'Na (H C O O)'
_chemical_formula_sum 'C1 H1 Na1 O2'
_chemical_name_structure_type NaHCOO
_exptl_crystal_density_diffrn 1.93
_publ_section_title 'Sodium formate'
loop_
_citation_id
_citation_journal_full
_citation_year
_citation_journal_volume
_citation_page_first
_citation_page_last
_citation_journal_id_ASTM
primary

;
Acta Crystallographica, Section B: Structural Crystallography and Crystal
Chemistry
; 1975 31 2927 2928 ACBCAR
loop_
_publ_author_name
'Markila, P.L.'
'Rettig, S.J.'
'Trotter, J.'
_cell_length_a 6.259(1)
_cell_length_b 6.757(2)
_cell_length_c 6.172(1)
_cell_angle_alpha 90.
_cell_angle_beta 116.14(1)
_cell_angle_gamma 90.
_cell_volume 234.33
_cell_formula_units_Z 4
_symmetry_space_group_name_H-M 'C 1 2/c 1'
_symmetry_Int_Tables_number 15
_refine_ls_R_factor_all 0.022
loop_
_symmetry_equiv_pos_site_id
_symmetry_equiv_pos_as_xyz
1 'x, -y, z+1/2'
2 '-x, -y, -z'
3 '-x, y, -z+1/2'
4 'x, y, z'
5 'x+1/2, -y+1/2, z+1/2'
6 '-x+1/2, -y+1/2, -z'
7 '-x+1/2, y+1/2, -z+1/2'
8 'x+1/2, y+1/2, z'
loop_
_atom_type_symbol
_atom_type_oxidation_number
Na1+ 1
O2- -2
C4+ 4
H1- -1
loop_
_atom_site_label
_atom_site_type_symbol
_atom_site_symmetry_multiplicity
_atom_site_Wyckoff_symbol
_atom_site_fract_x
_atom_site_fract_y
_atom_site_fract_z
_atom_site_B_iso_or_equiv
_atom_site_occupancy
_atom_site_attached_hydrogens
Na1 Na1+ 4 e 0 -.1380(1) 0.25 . 1. 0
O1 O2- 8 f 0.1357(2) 0.1966(2) 0.1796(2) . 1. 0
C1 C4+ 4 e 0 0.2799(2) 0.25 . 1. 0
H1 H1- 4 e 0 0.4268(30) 0.25 0.061(8) 1. 0
loop_
_atom_site_aniso_label
_atom_site_aniso_type_symbol
_atom_site_aniso_U_11
_atom_site_aniso_U_22
_atom_site_aniso_U_33
_atom_site_aniso_U_12
_atom_site_aniso_U_13
_atom_site_aniso_U_23
Na1 Na1+ 0.0174(3) 0.0238(4) 0.0179(3) 0 0.0076(2) 0
O1 O2- 0.0184(5) 0.0316(6) 0.0218(5) 0.0021 0.0101(4) 0.0041(3)
C1 C4+ 0.0267(7) 0.0208(7) 0.0213(7) 0. 0.0090(5) 0.
#End of TTdata_151233-ICSD