
#(C) 2019 by FIZ Karlsruhe - Leibniz Institute for Information Infrastructure.  All rights reserved.
data_151334-ICSD
_database_code_ICSD 151334
_audit_creation_date 2006-10-01
_chemical_name_systematic 'Lithium sodium diformate hydrate'
_chemical_formula_structural 'Li Na (H C O O)2 (H2 O)'
_chemical_formula_sum 'C2 H4 Li1 Na1 O5'
_exptl_crystal_density_diffrn 1.66
_publ_section_title
'Crystal structure of lithium sodium formate Li Na (H C O O)2 * (H2 O)'
loop_
_citation_id
_citation_journal_full
_citation_year
_citation_journal_volume
_citation_page_first
_citation_page_last
_citation_journal_id_ASTM
primary Kristallografiya 1986 31 175 177 KRISAJ
loop_
_publ_author_name
'Furmanova, N.G.'
'Andrianov, V.I.'
'Dobrzhanskii, G.F.'
_cell_length_a 7.074(4)
_cell_length_b 8.193(5)
_cell_length_c 10.316(9)
_cell_angle_alpha 110.42(5)
_cell_angle_beta 99.64(5)
_cell_angle_gamma 90.14(5)
_cell_volume 551.2
_cell_formula_units_Z 4
_symmetry_space_group_name_H-M 'P -1'
_symmetry_Int_Tables_number 2
_refine_ls_R_factor_all 0.073
loop_
_symmetry_equiv_pos_site_id
_symmetry_equiv_pos_as_xyz
1 '-x, -y, -z'
2 'x, y, z'
loop_
_atom_type_symbol
_atom_type_oxidation_number
Na1+ 1
Li1+ 1
O2- -2
C4+ 4
H1- -1
H1+ 1
loop_
_atom_site_label
_atom_site_type_symbol
_atom_site_symmetry_multiplicity
_atom_site_Wyckoff_symbol
_atom_site_fract_x
_atom_site_fract_y
_atom_site_fract_z
_atom_site_B_iso_or_equiv
_atom_site_occupancy
_atom_site_attached_hydrogens
Na1 Na1+ 2 i 0.5893(2) -0.1391(2) 0.3535(1) . 1. 0
Na2 Na1+ 2 i 0.0910(2) -0.1451(2) 0.3493(1) . 1. 0
Li1 Li1+ 2 i 0.7837(10) -0.4351(9) 0.1416(6) . 1. 0
Li2 Li1+ 2 i 0.3035(10) 0.1320(8) 0.2061(6) . 1. 0
O1 O2- 2 i 0.8782(4) -0.1522(3) 0.5103(3) . 1. 0
O2 O2- 2 i 0.8829(5) -0.2577(4) 0.6827(3) . 1. 0
O3 O2- 2 i 0.6244(4) 0.1609(3) 0.4932(3) . 1. 0
O4 O2- 2 i 0.5419(4) 0.2650(4) 0.3205(3) . 1. 0
O5 O2- 2 i 0.7980(4) -0.1891(3) 0.1784(2) . 1. 0
O6 O2- 2 i 0.7375(5) -0.1884(4) -0.0394(3) . 1. 0
O7 O2- 2 i 0.3021(4) -0.1152(3) 0.1870(2) . 1. 0
O8 O2- 2 i 0.2639(4) -0.3950(3) 0.0489(3) . 1. 0
O9 O2- 2 i 0.5747(4) -0.4601(3) 0.2351(3) . 1. 0
O10 O2- 2 i 0.0419(4) -0.4677(3) 0.2303(3) . 1. 0
C1 C4+ 2 i 0.9048(6) -0.2686(5) 0.5628(4) . 1. 0
C2 C4+ 2 i 0.6140(6) 0.2808(5) 0.4429(4) . 1. 0
C3 C4+ 2 i 0.7737(7) -0.1153(5) 0.0865(4) . 1. 0
C4 C4+ 2 i 0.2721(6) -0.2385(5) 0.0711(4) . 1. 0
H1 H1- 2 i 0.965 -0.384 0.499 3. 1. 0
H2 H1- 2 i 0.62 0.401 0.51 3. 1. 0
H3 H1- 2 i 0.8 0.03 0.139 3. 1. 0
H4 H1- 2 i 0.274 -0.2 0.003 3. 1. 0
H5 H1+ 2 i 0.429 -0.469 0.181 3. 1. 0
H6 H1+ 2 i 0.571 -0.533 0.265 3. 1. 0
H7 H1+ 2 i 0.146 -0.467 0.17 3. 1. 0
H8 H1+ 2 i 0.083 -0.558 0.251 3. 1. 0
#End of TTdata_151334-ICSD