
#(C) 2019 by FIZ Karlsruhe - Leibniz Institute for Information Infrastructure.  All rights reserved.
data_151358-ICSD
_database_code_ICSD 151358
_audit_creation_date 2006-10-01
_audit_update_record 2013-08-01
_chemical_name_systematic 'Sodium formate dihydrate'
_chemical_formula_structural 'Na (H C O O) (H2 O)2'
_chemical_formula_sum 'C1 H5 Na1 O4'
_exptl_crystal_density_diffrn 1.54
_cell_measurement_temperature 296.
_publ_section_title

;
Alkalimetallformiate, V. Die Kristallstruktur von Natriumformiat-Dihydrat, Na
H C O2 * 2(H2 O)
;
loop_
_citation_id
_citation_journal_full
_citation_year
_citation_journal_volume
_citation_page_first
_citation_page_last
_citation_journal_id_ASTM
primary 'Zeitschrift fuer Naturforschung, B: A Journal of Chemical Sciences'
1994 49 1179 1182 ZNBSEN
loop_
_publ_author_name
'Mueller, K.'
'Range, K.J.'
'Heyns, A.M.'
_cell_length_a 7.0694(9)
_cell_length_b 14.545(2)
_cell_length_c 8.717(2)
_cell_angle_alpha 90.
_cell_angle_beta 90.
_cell_angle_gamma 90.
_cell_volume 896.32
_cell_formula_units_Z 8
_symmetry_space_group_name_H-M 'C m c a'
_symmetry_Int_Tables_number 64
_refine_ls_R_factor_all 0.054
loop_
_symmetry_equiv_pos_site_id
_symmetry_equiv_pos_as_xyz
1 '-x, -y+1/2, z+1/2'
2 '-x, y+1/2, -z+1/2'
3 '-x, y, z'
4 '-x, -y, -z'
5 'x, y+1/2, -z+1/2'
6 'x, -y+1/2, z+1/2'
7 'x, -y, -z'
8 'x, y, z'
9 '-x+1/2, -y, z+1/2'
10 '-x+1/2, y, -z+1/2'
11 '-x+1/2, y+1/2, z'
12 '-x+1/2, -y+1/2, -z'
13 'x+1/2, y, -z+1/2'
14 'x+1/2, -y, z+1/2'
15 'x+1/2, -y+1/2, -z'
16 'x+1/2, y+1/2, z'
loop_
_atom_type_symbol
_atom_type_oxidation_number
Na1+ 1
C4+ 4
O2- -2
H1- -1
H1+ 1
loop_
_atom_site_label
_atom_site_type_symbol
_atom_site_symmetry_multiplicity
_atom_site_Wyckoff_symbol
_atom_site_fract_x
_atom_site_fract_y
_atom_site_fract_z
_atom_site_B_iso_or_equiv
_atom_site_occupancy
_atom_site_attached_hydrogens
Na1 Na1+ 8 d 0.2423(1) 0 0 0.03496(3) 1. 0
C1 C4+ 8 f 0 0.1822(1) 0.4602(2) 0.03787(4) 1. 0
O1 O2- 8 f 0.5 0.40079(9) 0.5737(1) 0.03318(3) 1. 0
O2 O2- 8 f 0.5 0.2845(1) 0.4103(2) 0.05294(4) 1. 0
O3 O2- 8 f 0 0.09295(8) 0.1067(1) 0.03382(3) 1. 0
O4 O2- 8 e 0.25 0.0906(1) 0.75 0.04876(4) 1. 0
H1 H1- 8 f 0.5 0.276(2) 0.628(3) 0.043(1) 1. 0
H2 H1+ 16 g 0.816(3) 0.131(2) 0.712(3) 0.044(1) 1. 0
H3 H1+ 8 f 0 0.088(2) 0.203(3) 0.03(1) 1. 0
H4 H1+ 8 f 0 0.156(2) 0.097(2) 0.03(1) 1. 0
#End of TTdata_151358-ICSD