
#(C) 2019 by FIZ Karlsruhe - Leibniz Institute for Information Infrastructure.  All rights reserved.
data_166933-ICSD
_database_code_ICSD 166933
_audit_creation_date 2010-08-01
_chemical_name_systematic 'Hexasodium pentacarbonatouranate(IV) dodecahydrate'
_chemical_formula_structural 'Na6 (U (C O3)5) (H2 O)12'
_chemical_formula_sum 'C5 H24 Na6 O27 U1'
_chemical_name_structure_type Na6Th(CO3)5(H2O)12
_exptl_crystal_density_diffrn 2.38
_cell_measurement_temperature 173.
_publ_section_title

;
Comparative investigation of the solution species (U (C O3)5)(6-) and the
crystal structure of Na6 (U (C O3)5) * 12(H2 O)
;
loop_
_citation_id
_citation_journal_full
_citation_year
_citation_journal_volume
_citation_page_first
_citation_page_last
_citation_journal_id_ASTM
primary 'Dalton Transactions' 2010 39 3744 3750 DTARAF
loop_
_publ_author_name
'Henning, C.'
'Ikeda-Ohno, A.'
'Emmerling, F.'
'Kraus, W.'
'Bernhard, G.'
_cell_length_a 9.563(2)
_cell_length_b 9.901(2)
_cell_length_c 13.658(3)
_cell_angle_alpha 90.452(3)
_cell_angle_beta 104.692(3)
_cell_angle_gamma 95.427(3)
_cell_volume 1244.61
_cell_formula_units_Z 2
_symmetry_space_group_name_H-M 'P -1'
_symmetry_Int_Tables_number 2
_refine_ls_R_factor_all 0.069
loop_
_symmetry_equiv_pos_site_id
_symmetry_equiv_pos_as_xyz
1 '-x, -y, -z'
2 'x, y, z'
loop_
_atom_type_symbol
_atom_type_oxidation_number
U4+ 4
Na1+ 1
O2- -2
C4+ 4
O2- -2
H1+ 1
O2- -2
H1+ 1
O2- -2
H1+ 1
O2- -2
H1+ 1
O2- -2
H1+ 1
O2- -2
H1+ 1
O2- -2
H1+ 1
O2- -2
H1+ 1
O2- -2
H1+ 1
O2- -2
H1+ 1
O2- -2
H1+ 1
O2- -2
H1+ 1
loop_
_atom_site_label
_atom_site_type_symbol
_atom_site_symmetry_multiplicity
_atom_site_Wyckoff_symbol
_atom_site_fract_x
_atom_site_fract_y
_atom_site_fract_z
_atom_site_B_iso_or_equiv
_atom_site_occupancy
_atom_site_attached_hydrogens
U1 U4+ 2 i 0.23432(2) 0.28317(2) 0.229659(14) 0.01087(15) 1 0
Na1 Na1+ 2 i 0.1802(4) 0.1994(5) -0.2231(3) 0.0397(9) 1 0
Na2 Na1+ 2 i 0.1464(4) 0.5889(3) 0.0963(3) 0.0248(7) 1 0
Na3 Na1+ 2 i 0.1269(4) -0.1001(3) 0.1601(3) 0.0226(6) 1 0
Na4 Na1+ 2 i 0.5923(4) 0.1386(4) -0.0464(3) 0.0285(7) 1 0
Na5 Na1+ 2 i 0.1789(4) 0.5486(4) 0.5633(3) 0.0298(7) 1 0
Na6 Na1+ 2 i 0.3909(4) 0.8335(4) 0.5014(3) 0.0345(8) 1 0
O1 O2- 2 i 0.1318(6) 0.4992(6) 0.2616(4) 0.0198(11) 1 0
O2 O2- 2 i 0.3209(6) 0.4386(6) 0.3725(4) 0.0204(10) 1 0
O3 O2- 2 i 0.2304(8) 0.6321(6) 0.4019(5) 0.0263(12) 1 0
O4 O2- 2 i 0.3626(6) 0.4825(5) 0.1668(5) 0.0203(11) 1 0
O5 O2- 2 i 0.4819(6) 0.3067(6) 0.2148(4) 0.0214(11) 1 0
O6 O2- 2 i 0.5884(6) 0.4790(6) 0.1457(5) 0.0257(12) 1 0
O7 O2- 2 i 0.2198(6) 0.2211(5) 0.0543(4) 0.0163(9) 1 0
O8 O2- 2 i 0.0634(6) 0.3592(6) 0.0735(4) 0.0174(10) 1 0
O9 O2- 2 i 0.0465(7) 0.2713(6) -0.0809(4) 0.0230(11) 1 0
O10 O2- 2 i 0.3161(7) 0.0593(6) 0.2303(4) 0.0208(11) 1 0
O11 O2- 2 i 0.3749(7) 0.1640(6) 0.3771(5) 0.0255(13) 1 0
O12 O2- 2 i 0.4429(7) -0.0433(6) 0.3664(5) 0.0266(12) 1 0
O13 O2- 2 i 0.0197(6) 0.1069(6) 0.1758(4) 0.0223(11) 1 0
O14 O2- 2 i 0.0520(8) 0.2183(8) 0.3188(6) 0.0372(16) 1 0
O15 O2- 2 i -0.1479(7) 0.0701(7) 0.2646(6) 0.0289(13) 1 0
C1 C4+ 2 i 0.2278(8) 0.5281(7) 0.3469(5) 0.0153(12) 1 0
C2 C4+ 2 i 0.4811(8) 0.4254(7) 0.1740(5) 0.0155(13) 1 0
C3 C4+ 2 i 0.3799(8) 0.0565(7) 0.3250(5) 0.0162(12) 1 0
C4 C4+ 2 i 0.1078(8) 0.2828(7) 0.0116(5) 0.0156(12) 1 0
C5 C4+ 2 i -0.0313(8) 0.1307(8) 0.2531(6) 0.0178(14) 1 0
O16 O2- 2 i 0.3389(7) 0.7624(6) 0.1944(5) 0.0250(12) 1 0
H1 H1+ 2 i 0.3807 0.8041 0.2505 0.037 1 0
H2 H1+ 2 i 0.3601 0.6787 0.2119 0.037 1 0
O17 O2- 2 i 0.1835(7) -0.0484(6) 0.0069(4) 0.0235(11) 1 0
H3 H1+ 2 i 0.2088 0.0363 0.005 0.035 1 0
H4 H1+ 2 i 0.1324 -0.0782 -0.0515 0.035 1 0
O18 O2- 2 i 0.1473(7) 0.4440(7) -0.2818(5) 0.0315(13) 1 0
H5 H1+ 2 i 0.1223 0.3969 -0.3373 0.047 1 0
H6 H1+ 2 i 0.0755 0.4814 -0.272 0.047 1 0
O19 O2- 2 i 0.3946(7) 0.4269(8) 0.5801(5) 0.0358(15) 1 0
H7 H1+ 2 i 0.4619 0.3792 0.5751 0.054 1 0
H8 H1+ 2 i 0.4175 0.508 0.6035 0.054 1 0
O20 O2- 2 i 0.3121(9) 0.1842(8) -0.3447(6) 0.0439(18) 1 0
H9 H1+ 2 i 0.3181 0.246 -0.3856 0.066 1 0
H10 H1+ 2 i 0.3706 0.1259 -0.3491 0.066 1 0
O21 O2- 2 i 0.2937(7) 0.7598(7) 0.6367(5) 0.0272(12) 1 0
H11 H1+ 2 i 0.2335 0.8117 0.6484 0.041 1 0
H12 H1+ 2 i 0.3595 0.7511 0.6907 0.041 1 0
O22 O2- 2 i 0.2513(8) 0.6596(8) -0.0395(6) 0.0331(14) 1 0
H13 H1+ 2 i 0.1876 0.6802 -0.0914 0.05 1 0
H14 H1+ 2 i 0.3005 0.6 -0.0559 0.05 1 0
O23 O2- 2 i 0.3896(7) 0.2600(7) -0.0843(5) 0.0277(12) 1 0
H15 H1+ 2 i 0.452 0.3306 -0.0693 0.041 1 0
H16 H1+ 2 i 0.3668 0.2309 -0.0293 0.041 1 0
O24 O2- 2 i 0.5630(7) 0.0654(7) 0.1176(5) 0.0313(14) 1 0
H17 H1+ 2 i 0.6532 0.0572 0.1721 0.047 1 0
H18 H1+ 2 i 0.5085 0.0736 0.1565 0.047 1 0
O25 O2- 2 i 0.1841(12) 0.9928(10) 0.4871(7) 0.061(3) 1 0
H19 H1+ 2 i 0.2233 1.063 0.4653 0.092 1 0
H20 H1+ 2 i 0.1469 0.9428 0.4343 0.092 1 0
O26 O2- 2 i -0.0637(7) 0.1706(6) -0.3143(5) 0.0273(12) 1 0
H21 H1+ 2 i -0.1145 0.2331 -0.3401 0.041 1 0
H22 H1+ 2 i -0.0083 0.1073 -0.3014 0.041 1 0
O27 O2- 2 i -0.0425(7) 0.6548(7) 0.5089(5) 0.0305(13) 1 0
H23 H1+ 2 i -0.0709 0.6864 0.5578 0.046 1 0
H24 H1+ 2 i -0.0384 0.7153 0.4657 0.046 1 0
loop_
_atom_site_aniso_label
_atom_site_aniso_type_symbol
_atom_site_aniso_U_11
_atom_site_aniso_U_22
_atom_site_aniso_U_33
_atom_site_aniso_U_12
_atom_site_aniso_U_13
_atom_site_aniso_U_23
U1 U4+ 0.01240(18) 0.01543(19) 0.00346(18) 0.00139(10) -0.00030(10) -0.00358(9)
Na1 Na1+ 0.0259(18) 0.062(3) 0.028(2) 0.0019(17) 0.0018(15) 0.0051(18)
Na2 Na1+ 0.0275(17) 0.0220(15) 0.0236(18) 0.0044(12) 0.0036(14) -0.0013(13)
Na3 Na1+ 0.0247(15) 0.0239(15) 0.0166(15) -0.0020(12) 0.0023(12) -0.0102(11)
Na4 Na1+ 0.0251(16) 0.0334(17) 0.0283(19) 0.0033(13) 0.0085(14) 0.0052(14)
Na5 Na1+ 0.0308(18) 0.0379(19) 0.0194(17) -0.0014(14) 0.0061(14) -0.0083(14)
Na6 Na1+ 0.036(2) 0.047(2) 0.0153(17) -0.0056(16) -0.0003(14) 0.0055(15)
O1 O2- 0.022(3) 0.026(3) 0.011(3) 0.007(2) 0.001(2) -0.005(2)
O2 O2- 0.019(2) 0.025(3) 0.015(3) 0.005(2) -0.001(2) -0.005(2)
O3 O2- 0.045(4) 0.022(3) 0.012(3) 0.007(2) 0.005(2) -0.007(2)
O4 O2- 0.021(2) 0.018(2) 0.026(3) 0.0008(19) 0.013(2) 0.002(2)
O5 O2- 0.019(2) 0.027(3) 0.018(3) 0.004(2) 0.003(2) 0.007(2)
O6 O2- 0.018(3) 0.032(3) 0.029(3) 0.002(2) 0.011(2) 0.006(3)
O7 O2- 0.022(2) 0.019(2) 0.005(2) 0.0052(18) -0.0014(18) -0.0035(17)
O8 O2- 0.022(3) 0.022(2) 0.004(2) 0.004(2) -0.0055(19) -0.0034(18)
O9 O2- 0.026(3) 0.028(3) 0.010(2) 0.000(2) -0.002(2) -0.006(2)
O10 O2- 0.033(3) 0.020(2) 0.007(2) 0.010(2) -0.002(2) 0.0003(19)
O11 O2- 0.032(3) 0.029(3) 0.017(3) 0.012(2) 0.004(2) -0.004(2)
O12 O2- 0.032(3) 0.028(3) 0.020(3) 0.012(2) 0.004(2) 0.008(2)
O13 O2- 0.021(3) 0.033(3) 0.012(2) -0.005(2) 0.005(2) -0.010(2)
O14 O2- 0.041(4) 0.043(4) 0.029(4) -0.017(3) 0.019(3) -0.021(3)
O15 O2- 0.016(3) 0.035(3) 0.036(4) -0.004(2) 0.011(3) -0.006(3)
C1 C4+ 0.021(3) 0.018(3) 0.006(3) 0.001(2) 0.001(2) -0.005(2)
C2 C4+ 0.019(3) 0.021(3) 0.005(3) 0.001(2) 0.001(2) -0.005(2)
C3 C4+ 0.020(3) 0.019(3) 0.009(3) 0.002(2) 0.002(2) 0.004(2)
C4 C4+ 0.018(3) 0.017(3) 0.011(3) 0.000(2) 0.002(2) -0.001(2)
C5 C4+ 0.016(3) 0.023(3) 0.013(3) 0.001(3) 0.003(3) -0.003(3)
O16 O2- 0.028(3) 0.028(3) 0.017(3) 0.005(2) 0.002(2) -0.001(2)
O17 O2- 0.028(3) 0.025(3) 0.013(3) 0.006(2) -0.003(2) -0.009(2)
O18 O2- 0.025(3) 0.049(4) 0.020(3) 0.001(3) 0.006(2) -0.003(3)
O19 O2- 0.029(3) 0.056(4) 0.019(3) -0.005(3) 0.002(3) 0.007(3)
O20 O2- 0.049(4) 0.046(4) 0.041(4) 0.009(3) 0.019(4) 0.007(3)
O21 O2- 0.025(3) 0.041(3) 0.014(3) 0.006(2) 0.000(2) -0.005(2)
O22 O2- 0.030(3) 0.046(4) 0.024(3) 0.008(3) 0.006(3) -0.007(3)
O23 O2- 0.027(3) 0.036(3) 0.023(3) 0.007(2) 0.010(2) 0.005(2)
O24 O2- 0.030(3) 0.041(4) 0.024(3) 0.005(3) 0.009(3) -0.007(3)
O25 O2- 0.084(7) 0.054(5) 0.034(5) 0.001(5) -0.004(5) -0.018(4)
O26 O2- 0.027(3) 0.031(3) 0.020(3) 0.005(2) -0.003(2) -0.003(2)
O27 O2- 0.033(3) 0.038(3) 0.020(3) 0.000(3) 0.008(3) -0.007(3)
#End of TTdata_166933-ICSD