
#(C) 2019 by FIZ Karlsruhe - Leibniz Institute for Information Infrastructure.  All rights reserved.
data_171669-ICSD
_database_code_ICSD 171669
_audit_creation_date 2006-10-01
_chemical_name_systematic

;
catena-Poly[disodium
[[diformatotricopper(II)]-di-mue3-formato-tetra-mue2-formato]]
;
_chemical_formula_structural 'Na2 (Cu3 (C H O2)8)'
_chemical_formula_sum 'C8 H8 Cu3 Na2 O16'
_exptl_crystal_density_diffrn 2.27
_publ_section_title

;
catena-Poly[disodium
[[diformatotricopper(II)]-di-mue3-formato-tetra-mue2-formato]]: a new mode of
bridging between binuclear and mononuclear formato-copper(II) units
;
loop_
_citation_id
_citation_journal_full
_citation_year
_citation_journal_volume
_citation_page_first
_citation_page_last
_citation_journal_id_ASTM
primary 'Acta Crystallographica, Section C: Crystal Structure Communications'
2006 62 m102 m104 ACSCEE
loop_
_publ_author_name
'Golobic, A.'
'Malekovic, M.'
'Segedin, P.'
_cell_length_a 7.6594(2)
_cell_length_b 7.77170(10)
_cell_length_c 8.7972(2)
_cell_angle_alpha 113.2480(10)
_cell_angle_beta 108.6530(10)
_cell_angle_gamma 97.4950(10)
_cell_volume 435.61
_cell_formula_units_Z 1
_symmetry_space_group_name_H-M 'P -1'
_symmetry_Int_Tables_number 2
_refine_ls_R_factor_all 0.052
loop_
_symmetry_equiv_pos_site_id
_symmetry_equiv_pos_as_xyz
1 '-x, -y, -z'
2 'x, y, z'
loop_
_atom_type_symbol
_atom_type_oxidation_number
Cu2+ 2
O2- -2
C4+ 4
Na1+ 1
H1- -1
loop_
_atom_site_label
_atom_site_type_symbol
_atom_site_symmetry_multiplicity
_atom_site_Wyckoff_symbol
_atom_site_fract_x
_atom_site_fract_y
_atom_site_fract_z
_atom_site_B_iso_or_equiv
_atom_site_occupancy
_atom_site_attached_hydrogens
Cu1 Cu2+ 2 i .88612(9) .03853(11) .08489(9) .0203(3) 1. 0
Cu2 Cu2+ 1 g 1. .5 .5 .0212(3) 1. 0
O1 O2- 2 i 1.0913(7) .2859(7) .2594(6) .0285(14) 1. 0
O2 O2- 2 i 1.2858(7) .2225(8) .1151(7) .0343(16) 1. 0
O3 O2- 2 i .7873(7) .1621(8) -.0680(7) .0302(16) 1. 0
O4 O2- 2 i .9812(9) .0929(9) -.2146(8) .0350(18) 1. 0
O5 O2- 2 i .7852(8) .5103(8) .3168(7) .0329(16) 1. 0
O6 O2- 2 i .5832(9) .6577(11) .2167(10) .047(2) 1. 0
O7 O2- 2 i .8186(7) .2809(7) .4857(6) .0280(14) 1. 0
O8 O2- 2 i .6732(6) .0676(7) .1886(6) .0249(13) 1. 0
C1 C4+ 2 i 1.2433(9) .3288(10) .2389(9) .0285(18) 1. 0
C2 C4+ 2 i .8550(11) .1669(12) -.1828(9) .031(2) 1. 0
C3 C4+ 2 i .7373(10) .6629(11) .3241(10) .030(2) 1. 0
C4 C4+ 2 i .6906(9) .1344(10) .3499(9) .0269(18) 1. 0
Na1 Na1+ 2 i .5425(4) .2744(4) .0234(4) .0259(8) 1. 0
H1 H1- 2 i 1.346(12) .453(10) .323(13) .034 1. 0
H2 H1- 2 i .807(15) .248(16) -.237(14) .03(2) 1. 0
H3 H1- 2 i .876(11) .774(12) .410(11) .011(16) 1. 0
H4 H1- 2 i .571(14) .089(15) .378(13) .02(2) 1. 0
loop_
_atom_site_aniso_label
_atom_site_aniso_type_symbol
_atom_site_aniso_U_11
_atom_site_aniso_U_22
_atom_site_aniso_U_33
_atom_site_aniso_U_12
_atom_site_aniso_U_13
_atom_site_aniso_U_23
Cu1 Cu2+ .0195(3) .0216(4) .0193(3) .0066(3) .0094(3) .0076(3)
Cu2 Cu2+ .0219(4) .0182(5) .0177(4) .0041(3) .0032(3) .0073(4)
O1 O2- .027(2) .023(2) .024(2) .0014(17) .0109(17) .0014(19)
O2 O2- .030(2) .028(2) .032(2) .0003(19) .017(2) .001(2)
O3 O2- .033(2) .038(3) .033(2) .020(2) .017(2) .023(2)
O4 O2- .044(3) .042(3) .037(3) .022(2) .024(2) .027(2)
O5 O2- .032(2) .025(2) .026(2) .0064(18) -.0001(18) .0085(18)
O6 O2- .039(3) .051(4) .055(4) .014(3) .007(3) .039(3)
O7 O2- .031(2) .024(2) .021(2) .0011(17) .0063(17) .0088(18)
O8 O2- .0238(18) .027(2) .0222(19) .0087(16) .0119(16) .0081(18)
C1 C4+ .021(2) .026(3) .026(3) .002(2) .009(2) .002(2)
C2 C4+ .041(3) .038(4) .028(3) .020(3) .015(3) .024(3)
C3 C4+ .032(3) .028(3) .032(3) .011(2) .009(3) .018(3)
C4 C4+ .024(2) .024(3) .024(3) .001(2) .009(2) .006(2)
Na1 Na1+ .0239(10) .0267(12) .0249(11) .0076(9) .0094(10) .0103(10)
#End of TTdata_171669-ICSD