
#(C) 2019 by FIZ Karlsruhe - Leibniz Institute for Information Infrastructure.  All rights reserved.
data_1889-ICSD
_database_code_ICSD 1889
_audit_creation_date 1980-01-01
_audit_update_record 2012-02-01
_chemical_name_systematic 'Disodium copper carbonate trihydrate'
_chemical_formula_structural 'Na2 Cu (C O3)2 (H2 O)3'
_chemical_formula_sum 'C2 H6 Cu1 Na2 O9'
_chemical_name_structure_type Na2Cu(CO3)2(H2O)3
_chemical_name_mineral Chalconatronite
_exptl_crystal_density_diffrn 2.32
_publ_section_title

;
An independant investigation of the crystal structure of Na2 Cu (C O3)2 (H2
O)3 with diffractiometer data
;
loop_
_citation_id
_citation_journal_full
_citation_year
_citation_journal_volume
_citation_page_first
_citation_page_last
_citation_journal_id_ASTM
primary

;
Acta Crystallographica, Section B: Structural Crystallography and Crystal
Chemistry
; 1975 31 1313 1318 ACBCAR
loop_
_publ_author_name
'Harlow, R.L.'
'Simonsen, S.H.'
_cell_length_a 9.691(2)
_cell_length_b 6.091(1)
_cell_length_c 17.1110(30)
_cell_angle_alpha 90.
_cell_angle_beta 126.40(1)
_cell_angle_gamma 90.
_cell_volume 812.96
_cell_formula_units_Z 4
_symmetry_space_group_name_H-M 'P 1 21/c 1'
_symmetry_Int_Tables_number 14
_refine_ls_R_factor_all 0.042
loop_
_symmetry_equiv_pos_site_id
_symmetry_equiv_pos_as_xyz
1 'x, -y+1/2, z+1/2'
2 '-x, -y, -z'
3 '-x, y+1/2, -z+1/2'
4 'x, y, z'
loop_
_atom_type_symbol
_atom_type_oxidation_number
Cu2+ 2
Na1+ 1
O2- -2
C4+ 4
H1+ 1
loop_
_atom_site_label
_atom_site_type_symbol
_atom_site_symmetry_multiplicity
_atom_site_Wyckoff_symbol
_atom_site_fract_x
_atom_site_fract_y
_atom_site_fract_z
_atom_site_B_iso_or_equiv
_atom_site_occupancy
_atom_site_attached_hydrogens
Cu1 Cu2+ 4 e 0.05735(5) -.00986(8) 0.18029(3) . 1. 0
Na1 Na1+ 4 e 0.4918(2) -.0227(3) 0.5979(1) . 1. 0
Na2 Na1+ 4 e 0.3659(2) 0.2636(3) 0.2014(1) . 1. 0
O1 O2- 4 e 0.0781(3) 0.2204(5) 0.2650(2) . 1. 0
O2 O2- 4 e 0.1871(3) 0.4741(1) 0.3783(2) . 1. 0
O3 O2- 4 e 0.3448(3) 0.3467(4) 0.3321(2) . 1. 0
O4 O2- 4 e 0.0805(3) -.2609(5) 0.1135(2) . 1. 0
O5 O2- 4 e 0.2980(3) -.0823(4) 0.2335(2) . 1. 0
O6 O2- 4 e 0.3490(3) -.3602(4) 0.1678(2) . 1. 0
O7 O2- 4 e 0.0520(4) 0.2672(5) 0.0819(2) . 1. 0
O8 O2- 4 e 0.3026(3) -.1004(5) 0.4326(2) . 1. 0
O9 O2- 4 e 0.3988(3) 0.1557(5) 0.0791(2) . 1. 0
C1 C4+ 4 e 0.2065(4) 0.3471(6) 0.3242(3) . 1. 0
C2 C4+ 4 e 0.2466(4) -.2400(6) 0.1710(3) . 1. 0
H1 H1+ 4 e 0.01 0.26 0.015 6. 1. 0
H2 H1+ 4 e 0.03 0.4 0.095 6. 1. 0
H3 H1+ 4 e 0.27 -.24 0.41 6. 1. 0
H4 H1+ 4 e 0.21 -.025 0.4 6. 1. 0
H5 H1+ 4 e 0.33 0.12 0.02 6. 1. 0
H6 H1+ 4 e 0.48 0.05 0.115 6. 1. 0
loop_
_atom_site_aniso_label
_atom_site_aniso_type_symbol
_atom_site_aniso_beta_11
_atom_site_aniso_beta_22
_atom_site_aniso_beta_33
_atom_site_aniso_beta_12
_atom_site_aniso_beta_13
_atom_site_aniso_beta_23
Cu1 Cu2+ 0.0019(1) 0.0049(1) 0.0011(1) -.0005(1) 0.0009 -.0010(1)
Na1 Na1+ 0.0088(2) 0.0141(5) 0.0025(1) 0.0007(3) 0.0029(1) 0.0001(2)
Na2 Na1+ 0.0088(3) 0.0121(4) 0.0030(1) 0.0001(3) 0.0034(1) 0.0007(2)
O1 O2- 0.0066(4) 0.0173(9) 0.0035(2) -.0031(5) 0.0029(2) -.0035(3)
O2 O2- 0.0062(4) 0.0116(7) 0.0024(1) 0.0003(4) 0.0023(2) -.0008(3)
O3 O2- 0.0068(4) 0.0135(8) 0.0038(2) -.0015(5) 0.0036(3) -.0016(3)
O4 O2- 0.0055(4) 0.0168(8) 0.0029(2) -.0008(5) 0.0020(2) -.0022(3)
O5 O2- 0.0070(4) 0.0113(7) 0.0027(1) -.0003(4) 0.0025(2) -.0014(3)
O6 O2- 0.0089(5) 0.0121(7) 0.0040(2) 0.0018(5) 0.0042(2) 0.0000(3)
O7 O2- 0.0120(5) 0.0167(9) 0.0027(2) 0.0004(6) 0.0032(3) 0.0007(3)
O8 O2- 0.0106(5) 0.0141(8) 0.0035(2) -.0026(5) 0.0031(3) -.0009(3)
O9 O2- 0.0103(5) 0.0147(8) 0.0027(2) 0.0020(5) 0.0024(2) -.0007(3)
C1 C4+ 0.0063(5) 0.0084(9) 0.0020(2) 0.0013(6) 0.0022(3) 0.0004(3)
C2 C4+ 0.0061(5) 0.0102(9) 0.0021(2) -.0001(6) 0.0022(3) 0.0003(4)
#End of TTdata_1889-ICSD