
#(C) 2019 by FIZ Karlsruhe - Leibniz Institute for Information Infrastructure.  All rights reserved.
data_189345-ICSD
_database_code_ICSD 189345
_audit_creation_date 2014-02-01
_chemical_name_systematic 'Calcium disodium dicarbonate dihydrate'
_chemical_formula_structural 'Ca Na2 (C O3)2 (H2 O)2'
_chemical_formula_sum 'C2 H4 Ca1 Na2 O8'
_chemical_name_structure_type CaNa2(CO3)2(H2O)2
_chemical_name_mineral Pirssonite
_exptl_crystal_density_diffrn 2.35
_publ_section_title

;
High resolution X - ray diffraction data of pirssonite from Searles Lake, San
Bernardino County, California
;
loop_
_citation_id
_citation_journal_full
_citation_year
_citation_journal_volume
_citation_page_first
_citation_page_last
_citation_journal_id_ASTM
primary 'Neues Jahrbuch fuer Mineralogie, Abhandlungen' 2013 190 221 227 NJMIAK
loop_
_publ_author_name
'Callegari, Athos Maria'
'Boiocchi, Massimo'
_cell_length_a 11.3285(3)
_cell_length_b 20.0579(4)
_cell_length_c 6.0313(1)
_cell_angle_alpha 90.
_cell_angle_beta 90.
_cell_angle_gamma 90.
_cell_volume 1370.47
_cell_formula_units_Z 8
_symmetry_space_group_name_H-M 'F d d 2'
_symmetry_Int_Tables_number 43
_refine_ls_R_factor_all 0.0246
loop_
_symmetry_equiv_pos_site_id
_symmetry_equiv_pos_as_xyz
1 'x+1/4, -y+1/4, z+1/4'
2 '-x+1/4, y+1/4, z+1/4'
3 '-x, -y, z'
4 'x, y, z'
5 'x+1/4, -y+3/4, z+3/4'
6 '-x+1/4, y+3/4, z+3/4'
7 '-x, -y+1/2, z+1/2'
8 'x, y+1/2, z+1/2'
9 'x+3/4, -y+1/4, z+3/4'
10 '-x+3/4, y+1/4, z+3/4'
11 '-x+1/2, -y, z+1/2'
12 'x+1/2, y, z+1/2'
13 'x+3/4, -y+3/4, z+1/4'
14 '-x+3/4, y+3/4, z+1/4'
15 '-x+1/2, -y+1/2, z'
16 'x+1/2, y+1/2, z'
loop_
_atom_type_symbol
_atom_type_oxidation_number
Ca2+ 2
Na1+ 1
C4+ 4
O2- -2
H1+ 1
loop_
_atom_site_label
_atom_site_type_symbol
_atom_site_symmetry_multiplicity
_atom_site_Wyckoff_symbol
_atom_site_fract_x
_atom_site_fract_y
_atom_site_fract_z
_atom_site_B_iso_or_equiv
_atom_site_occupancy
_atom_site_attached_hydrogens
Ca1 Ca2+ 8 a 0 0 0 0.0116(1) 1. 0
Na1 Na1+ 16 b 0.4348(1) 0.1121(1) 0.0062(1) 0.0226(1) 1. 0
C1 C4+ 16 b 0.5841(1) 0.3641(1) 0.0063(1) 0.0117(1) 1. 0
O1 O2- 16 b 0.5053(1) 0.3839(1) 0.8691(1) 0.0150(1) 1. 0
O2 O2- 16 b 0.6295(1) 0.4061(1) 0.1415(1) 0.0169(1) 1. 0
O3 O2- 16 b 0.6164(1) 0.3019(1) 0.0108(1) 0.0177(1) 1. 0
O4 O2- 16 b 0.3591(1) 0.4943(1) 0.6846(1) 0.0231(1) 1. 0
H1 H1+ 16 b 0.3611(18) 0.4796(9) 0.5374(36) 0.023 1. 0
H2 H1+ 16 b 0.2812(18) 0.5123(10) 0.7157(36) 0.023 1. 0
loop_
_atom_site_aniso_label
_atom_site_aniso_type_symbol
_atom_site_aniso_U_11
_atom_site_aniso_U_22
_atom_site_aniso_U_33
_atom_site_aniso_U_12
_atom_site_aniso_U_13
_atom_site_aniso_U_23
Ca1 Ca2+ 0.0128(1) 0.0102(1) 0.0119(1) -0.0002(1) 0.0000(1) 0.0000(1)
Na1 Na1+ 0.0158(1) 0.0377(2) 0.0145(1) 0.0001(1) 0.0003(1) 0.0005(2)
C1 C4+ 0.0121(1) 0.0114(2) 0.0115(1) 0.0006(1) 0.0012(2) 0.0002(2)
O1 O2- 0.0142(2) 0.0169(2) 0.0138(2) 0.0007(1) -0.0027(1) -0.0004(1)
O2 O2- 0.0177(2) 0.0165(2) 0.0164(2) -0.0003(1) -0.0044(2) -0.0028(1)
O3 O2- 0.0225(2) 0.0120(2) 0.0186(2) 0.0043(1) 0.0047(2) 0.0013(2)
O4 O2- 0.0194(2) 0.0269(2) 0.0229(3) 0.0060(2) -0.0071(2) -0.0077(2)
#End of TTdata_189345-ICSD