
#(C) 2019 by FIZ Karlsruhe - Leibniz Institute for Information Infrastructure.  All rights reserved.
data_192713-ICSD
_database_code_ICSD 192713
_audit_creation_date 2015-02-01
_chemical_name_systematic 'Trisodium carbonate (hydrogen carbonate) dihydrate'
_chemical_formula_structural 'Na3 (C O3) (H C O3) (H2 O)2'
_chemical_formula_sum 'C2 H5 Na3 O8'
_chemical_name_structure_type Na3H(CO3)2(H2O)2
_chemical_name_mineral Trona
_exptl_crystal_density_diffrn 2.13
_cell_measurement_temperature 340.
_publ_section_title

;
Trona at extreme conditions. A pollutant-sequestering material at high
pressures and low temperatures
;
loop_
_citation_id
_citation_journal_full
_citation_year
_citation_journal_volume
_citation_page_first
_citation_page_last
_citation_journal_id_ASTM
primary 'American Mineralogist' 2014 99 1973 1984 AMMIAY
loop_
_publ_author_name
'O'Bannon, Earl III'
'Beavers, Christine M.'
'Williams, Quentin'
_cell_length_a 20.400(3)
_cell_length_b 3.4922(5)
_cell_length_c 10.3279(14)
_cell_angle_alpha 90
_cell_angle_beta 106.469(7)
_cell_angle_gamma 90
_cell_volume 705.58
_cell_formula_units_Z 4
_symmetry_space_group_name_H-M 'C 1 2/c 1'
_symmetry_Int_Tables_number 15
_refine_ls_R_factor_all 0.0418
loop_
_symmetry_equiv_pos_site_id
_symmetry_equiv_pos_as_xyz
1 'x, -y, z+1/2'
2 '-x, -y, -z'
3 '-x, y, -z+1/2'
4 'x, y, z'
5 'x+1/2, -y+1/2, z+1/2'
6 '-x+1/2, -y+1/2, -z'
7 '-x+1/2, y+1/2, -z+1/2'
8 'x+1/2, y+1/2, z'
loop_
_atom_type_symbol
_atom_type_oxidation_number
Na1+ 1
O2- -2
C4+ 4
H1+ 1
loop_
_atom_site_label
_atom_site_type_symbol
_atom_site_symmetry_multiplicity
_atom_site_Wyckoff_symbol
_atom_site_fract_x
_atom_site_fract_y
_atom_site_fract_z
_atom_site_B_iso_or_equiv
_atom_site_occupancy
_atom_site_attached_hydrogens
Na1 Na1+ 4 e 0.5 0.2539(2) 0.25 0.02309(17) 1 0
Na2 Na1+ 8 f 0.34953(3) 0.83422(16) 0.07394(6) 0.02751(16) 1 0
O1 O2- 8 f 0.34897(5) 0.6014(3) 0.39780(9) 0.02502(19) 1 0
O2 O2- 8 f 0.44558(5) 0.8699(3) 0.51192(9) 0.02475(19) 1 0
O3 O2- 8 f 0.28799(6) 1.3337(3) 0.14545(11) 0.0294(2) 1 0
O4 O2- 8 f 0.42765(5) 0.7464(2) 0.29221(9) 0.02167(18) 1 0
C1 C4+ 8 f 0.40694(5) 0.7350(3) 0.39659(10) 0.01746(19) 1 0
H1 H1+ 8 f 0.2474(14) 1.265(9) 0.146(3) 0.053(7) 1 0
H2 H1+ 8 f 0.3031(12) 1.389(7) 0.226(2) 0.040(6) 1 0
H3 H1+ 8 f 0.479(2) 0.954(15) 0.501(5) 0.037(11) 0.5 0
loop_
_atom_site_aniso_label
_atom_site_aniso_type_symbol
_atom_site_aniso_U_11
_atom_site_aniso_U_22
_atom_site_aniso_U_33
_atom_site_aniso_U_12
_atom_site_aniso_U_13
_atom_site_aniso_U_23
Na1 Na1+ 0.0270(4) 0.0206(3) 0.0239(3) 0. 0.0109(3) 0.
Na2 Na1+ 0.0334(3) 0.0258(3) 0.0261(3) -0.00400(19) 0.0128(2) -0.00205(18)
O1 O2- 0.0209(4) 0.0312(4) 0.0247(4) -0.0037(3) 0.0093(3) 0.0022(3)
O2 O2- 0.0244(4) 0.0327(4) 0.0174(4) -0.0028(3) 0.0064(3) -0.0041(3)
O3 O2- 0.0311(5) 0.0334(5) 0.0260(4) -0.0082(4) 0.0116(4) -0.0051(3)
O4 O2- 0.0256(4) 0.0245(4) 0.0180(4) -0.0012(3) 0.0111(3) -0.0009(3)
C1 C4+ 0.0196(4) 0.0164(4) 0.0177(4) 0.0017(3) 0.0074(3) 0.0007(3)
#End of TTdata_192713-ICSD