
#(C) 2019 by FIZ Karlsruhe - Leibniz Institute for Information Infrastructure.  All rights reserved.
data_192709-ICSD
_database_code_ICSD 192709
_audit_creation_date 2015-02-01
_chemical_name_systematic 'Trisodium carbonate (hydrogen carbonate) dihydrate'
_chemical_formula_structural 'Na3 (C O3) (H C O3) (H2 O)2'
_chemical_formula_sum 'C2 H5 Na3 O8'
_chemical_name_structure_type Na3H(CO3)2(H2O)2
_chemical_name_mineral Trona
_exptl_crystal_density_diffrn 2.14
_cell_measurement_temperature 200.
_publ_section_title

;
Trona at extreme conditions. A pollutant-sequestering material at high
pressures and low temperatures
;
loop_
_citation_id
_citation_journal_full
_citation_year
_citation_journal_volume
_citation_page_first
_citation_page_last
_citation_journal_id_ASTM
primary 'American Mineralogist' 2014 99 1973 1984 AMMIAY
loop_
_publ_author_name
'O'Bannon, Earl III'
'Beavers, Christine M.'
'Williams, Quentin'
_cell_length_a 20.370(4)
_cell_length_b 3.4749(7)
_cell_length_c 10.3146(19)
_cell_angle_alpha 90
_cell_angle_beta 106.484(14)
_cell_angle_gamma 90
_cell_volume 700.09
_cell_formula_units_Z 4
_symmetry_space_group_name_H-M 'C 1 2/c 1'
_symmetry_Int_Tables_number 15
_refine_ls_R_factor_all 0.0408
loop_
_symmetry_equiv_pos_site_id
_symmetry_equiv_pos_as_xyz
1 'x, -y, z+1/2'
2 '-x, -y, -z'
3 '-x, y, -z+1/2'
4 'x, y, z'
5 'x+1/2, -y+1/2, z+1/2'
6 '-x+1/2, -y+1/2, -z'
7 '-x+1/2, y+1/2, -z+1/2'
8 'x+1/2, y+1/2, z'
loop_
_atom_type_symbol
_atom_type_oxidation_number
Na1+ 1
C4+ 4
O2- -2
H1+ 1
O2- -2
H1+ 1
loop_
_atom_site_label
_atom_site_type_symbol
_atom_site_symmetry_multiplicity
_atom_site_Wyckoff_symbol
_atom_site_fract_x
_atom_site_fract_y
_atom_site_fract_z
_atom_site_B_iso_or_equiv
_atom_site_occupancy
_atom_site_attached_hydrogens
Na1 Na1+ 4 e 0. 0.2535(3) 0.75 0.0175(4) 1 0
Na2 Na1+ 8 f 0.15081(5) 0.1620(3) 0.42569(9) 0.0199(4) 1 0
C1 C4+ 8 f 0.09316(12) 0.7348(6) 0.6033(2) 0.0153(5) 1 0
O1 O2- 8 f 0.07255(8) 0.7466(5) 0.70803(15) 0.0170(4) 1 0
O2 O2- 8 f 0.15127(8) 0.6001(5) 0.60161(15) 0.0188(4) 1 0
O3 O2- 8 f 0.05436(8) 0.8699(5) 0.48764(15) 0.0182(5) 1 0
H1 H1+ 8 f 0.016(3) 0.94(2) 0.493(7) 0.027 0.5 0
O4 O2- 8 f 0.21206(9) -0.3362(5) 0.35455(18) 0.0212(5) 1 0
H2 H1+ 8 f 0.2535(12) -0.288(10) 0.363(3) 0.032 1 0
H3 H1+ 8 f 0.1978(15) -0.386(10) 0.271(2) 0.032 1 0
loop_
_atom_site_aniso_label
_atom_site_aniso_type_symbol
_atom_site_aniso_U_11
_atom_site_aniso_U_22
_atom_site_aniso_U_33
_atom_site_aniso_U_12
_atom_site_aniso_U_13
_atom_site_aniso_U_23
Na1 Na1+ 0.0224(7) 0.0118(7) 0.0204(7) 0. 0.0095(5) 0.
Na2 Na1+ 0.0261(6) 0.0143(6) 0.0218(6) -0.0021(3) 0.0106(4) -0.0011(3)
C1 C4+ 0.0198(11) 0.0078(10) 0.0193(12) -0.0044(8) 0.0073(9) -0.0025(8)
O1 O2- 0.0219(9) 0.0135(9) 0.0183(8) 0.0000(6) 0.0100(7) 0.0006(6)
O2 O2- 0.0187(8) 0.0183(8) 0.0211(8) 0.0017(6) 0.0084(6) -0.0011(6)
O3 O2- 0.0198(9) 0.0181(9) 0.0176(8) 0.0024(7) 0.0070(6) 0.0023(6)
O4 O2- 0.0236(9) 0.0192(9) 0.0223(8) -0.0049(7) 0.0091(7) -0.0031(7)
#End of TTdata_192709-ICSD