
#(C) 2019 by FIZ Karlsruhe - Leibniz Institute for Information Infrastructure.  All rights reserved.
data_192735-ICSD
_database_code_ICSD 192735
_audit_creation_date 2015-02-01
_chemical_name_systematic
'Sodium dimolybdenum(V) dioxide heptakis(methoxide) bis(methanol)'
_chemical_formula_structural 'Na Mo2 O2 (O C H3)7 (C H3 O H)'
_chemical_formula_sum 'C8 H25 Mo2 Na1 O10'
_exptl_crystal_density_diffrn 1.84
_cell_measurement_temperature 120.
_publ_section_title

;
Methanolysis of Mo Cl5 in the presence of different alkaline agents; molecular
structures of the polynuclear molybdenum(V) methoxides and electron charge
density from X-ray diffraction study of the new K-Mo cluster
;
loop_
_citation_id
_citation_journal_full
_citation_year
_citation_journal_volume
_citation_page_first
_citation_page_last
_citation_journal_id_ASTM
primary Polyhedron 2014 76 108 116 PLYHDE
loop_
_publ_author_name
'Bazhenova, Tamara A.'
'Lyssenko, Konstantin A.'
'Kuznetsov, Denis A.'
'Kovaleva, Nadezhda V.'
'Manakin, Yuri V.'
'Savinykh, Tatyana A.'
'Shestakov, Alexander F.'
_cell_length_a 8.8741(10)
_cell_length_b 14.1082(16)
_cell_length_c 14.4208(17)
_cell_angle_alpha 90.
_cell_angle_beta 98.333(6)
_cell_angle_gamma 90.
_cell_volume 1786.38
_cell_formula_units_Z 4
_symmetry_space_group_name_H-M 'P 1 21/c 1'
_symmetry_Int_Tables_number 14
_refine_ls_R_factor_all 0.0344
loop_
_symmetry_equiv_pos_site_id
_symmetry_equiv_pos_as_xyz
1 'x, -y+1/2, z+1/2'
2 '-x, -y, -z'
3 '-x, y+1/2, -z+1/2'
4 'x, y, z'
loop_
_atom_type_symbol
_atom_type_oxidation_number
Na1+ 1
Mo5+ 5
O2- -2
H1+ 1
C4+ 4
H1- -1
C4+ 4
H1- -1
C4+ 4
H1- -1
C4+ 4
H1- -1
C4+ 4
H1- -1
C4+ 4
H1- -1
C4+ 4
H1- -1
C4+ 4
H1- -1
loop_
_atom_site_label
_atom_site_type_symbol
_atom_site_symmetry_multiplicity
_atom_site_Wyckoff_symbol
_atom_site_fract_x
_atom_site_fract_y
_atom_site_fract_z
_atom_site_B_iso_or_equiv
_atom_site_occupancy
_atom_site_attached_hydrogens
Na1 Na1+ 4 e -0.21302(13) 0.72336(8) 0.15916(9) 0.0208(2) 1 0
Mo1 Mo5+ 4 e 0.11241(2) 0.697856(16) 0.059247(17) 0.01436(7) 1 0
Mo2 Mo5+ 4 e 0.41331(2) 0.699926(16) 0.066184(16) 0.01399(7) 1 0
O1 O2- 4 e 0.0582(2) 0.66688(15) -0.05554(15) 0.0223(4) 1 0
O2 O2- 4 e -0.0316(2) 0.79795(14) 0.08253(17) 0.0229(5) 1 0
O3 O2- 4 e -0.0144(2) 0.62499(14) 0.13316(15) 0.0208(4) 1 0
O4 O2- 4 e 0.2796(2) 0.73310(14) 0.17521(14) 0.0171(4) 1 0
O5 O2- 4 e 0.2537(2) 0.80655(13) 0.01666(15) 0.0180(4) 1 0
O6 O2- 4 e 0.2680(2) 0.58723(14) 0.08316(15) 0.0173(4) 1 0
O7 O2- 4 e 0.4279(2) 0.66730(15) -0.04526(15) 0.0226(4) 1 0
O8 O2- 4 e 0.5637(2) 0.80203(14) 0.09687(17) 0.0221(4) 1 0
O9 O2- 4 e 0.5710(2) 0.62950(14) 0.14651(15) 0.0206(4) 1 0
O10 O2- 4 e -0.1693(3) 0.7393(2) 0.31821(19) 0.0426(7) 1 0
H1 H1+ 4 e -0.0879 0.7749 0.3497 0.056(14) 1 0
C1 C4+ 4 e -0.0311(4) 0.8955(2) 0.0610(3) 0.0331(8) 1 0
H2 H1- 4 e 0.0743 0.9175 0.0638 0.05 1 0
H3 H1- 4 e -0.0813 0.9309 0.1063 0.05 1 0
H4 H1- 4 e -0.0858 0.9058 -0.0023 0.05 1 0
C2 C4+ 4 e 0.0258(4) 0.5474(2) 0.1951(2) 0.0256(6) 1 0
H5 H1- 4 e 0.1333 0.5526 0.2222 0.038 1 0
H6 H1- 4 e 0.0093 0.4878 0.1604 0.038 1 0
H7 H1- 4 e -0.0375 0.5486 0.2454 0.038 1 0
C3 C4+ 4 e 0.2838(4) 0.8219(2) 0.2245(2) 0.0240(6) 1 0
H8 H1- 4 e 0.1921 0.8281 0.2546 0.036 1 0
H9 H1- 4 e 0.2879 0.8741 0.1801 0.036 1 0
H10 H1- 4 e 0.3743 0.8239 0.2723 0.036 1 0
C4 C4+ 4 e 0.2382(4) 0.8430(2) -0.0772(2) 0.0256(6) 1 0
H11 H1- 4 e 0.3251 0.8841 -0.0838 0.038 1 0
H12 H1- 4 e 0.1436 0.8795 -0.0904 0.038 1 0
H13 H1- 4 e 0.2354 0.7902 -0.1216 0.038 1 0
C5 C4+ 4 e 0.2577(3) 0.5035(2) 0.0253(2) 0.0248(6) 1 0
H14 H1- 4 e 0.17 0.4655 0.0369 0.037 1 0
H15 H1- 4 e 0.351 0.466 0.0403 0.037 1 0
H16 H1- 4 e 0.2453 0.5221 -0.0409 0.037 1 0
C6 C4+ 4 e 0.5523(4) 0.9002(2) 0.0782(3) 0.0308(7) 1 0
H17 H1- 4 e 0.6111 0.9352 0.13 0.046 1 0
H18 H1- 4 e 0.4452 0.9196 0.0719 0.046 1 0
H19 H1- 4 e 0.5925 0.914 0.0199 0.046 1 0
C7 C4+ 4 e 0.5566(4) 0.5474(2) 0.2017(2) 0.0271(7) 1 0
H20 H1- 4 e 0.6394 0.5462 0.2546 0.041 1 0
H21 H1- 4 e 0.5622 0.4906 0.1632 0.041 1 0
H22 H1- 4 e 0.4585 0.5488 0.2252 0.041 1 0
C8 C4+ 4 e -0.2979(4) 0.7522(3) 0.3646(3) 0.0421(9) 1 0
H23 H1- 4 e -0.2751 0.7285 0.429 0.063 1 0
H24 H1- 4 e -0.3847 0.7171 0.3312 0.063 1 0
H25 H1- 4 e -0.3231 0.8197 0.3656 0.063 1 0
loop_
_atom_site_aniso_label
_atom_site_aniso_type_symbol
_atom_site_aniso_U_11
_atom_site_aniso_U_22
_atom_site_aniso_U_33
_atom_site_aniso_U_12
_atom_site_aniso_U_13
_atom_site_aniso_U_23
Na1 Na1+ 0.0168(5) 0.0216(6) 0.0241(6) -0.0004(4) 0.0035(4) -0.0003(5)
Mo1 Mo5+ 0.01339(11) 0.01108(12) 0.01842(13) 0.00004(8) 0.00168(8) 0.00007(8)
Mo2 Mo5+ 0.01363(11) 0.01095(12) 0.01741(13) 0.00019(8) 0.00231(8) 0.00087(8)
O1 O2- 0.0217(10) 0.0217(10) 0.0226(11) -0.0002(8) 0.0004(8) -0.0018(9)
O2 O2- 0.0191(10) 0.0144(10) 0.0364(13) 0.0020(8) 0.0080(9) 0.0033(8)
O3 O2- 0.0192(9) 0.0163(10) 0.0280(11) 0.0005(8) 0.0066(8) 0.0026(8)
O4 O2- 0.0198(9) 0.0138(9) 0.0180(10) -0.0007(7) 0.0039(7) -0.0006(7)
O5 O2- 0.0200(9) 0.0141(9) 0.0205(11) 0.0012(7) 0.0047(8) 0.0049(7)
O6 O2- 0.0167(9) 0.0103(9) 0.0248(11) -0.0008(7) 0.0031(8) -0.0012(8)
O7 O2- 0.0245(10) 0.0221(11) 0.0226(11) 0.0025(9) 0.0080(8) 0.0010(9)
O8 O2- 0.0181(9) 0.0149(10) 0.0329(13) -0.0007(7) 0.0024(8) 0.0035(8)
O9 O2- 0.0179(9) 0.0168(10) 0.0266(11) -0.0004(8) 0.0018(8) 0.0040(8)
O10 O2- 0.0238(12) 0.072(2) 0.0321(14) -0.0032(12) 0.0036(10) -0.0219(14)
C1 C4+ 0.0226(15) 0.0206(15) 0.058(2) 0.0055(12) 0.0113(15) 0.0066(15)
C2 C4+ 0.0279(15) 0.0195(15) 0.0299(17) 0.0007(12) 0.0062(12) 0.0058(12)
C3 C4+ 0.0314(16) 0.0186(14) 0.0219(15) -0.0013(12) 0.0035(12) -0.0063(11)
C4 C4+ 0.0282(15) 0.0244(16) 0.0247(16) 0.0031(12) 0.0052(12) 0.0084(12)
C5 C4+ 0.0233(14) 0.0141(13) 0.0366(18) -0.0001(11) 0.0025(12) -0.0082(12)
C6 C4+ 0.0229(15) 0.0173(15) 0.052(2) -0.0034(12) 0.0064(14) 0.0061(14)
C7 C4+ 0.0264(15) 0.0193(15) 0.0341(18) -0.0008(12) -0.0011(13) 0.0095(13)
C8 C4+ 0.0310(18) 0.061(3) 0.035(2) -0.0023(18) 0.0074(15) -0.0155(19)
#End of TTdata_192735-ICSD