
#(C) 2019 by FIZ Karlsruhe - Leibniz Institute for Information Infrastructure.  All rights reserved.
data_201521-ICSD
_database_code_ICSD 201521
_audit_creation_date 1985-07-17
_audit_update_record 2008-02-01
_chemical_name_systematic 'Sodium potassium carbonate hexahydrate'
_chemical_formula_structural 'Na K (C O3) (H2 O)6'
_chemical_formula_sum 'C1 H12 K1 Na1 O9'
_exptl_crystal_density_diffrn 1.62
_publ_section_title 'Structure cristalline de K Na C O3 (H2 O)6'
loop_
_citation_id
_citation_journal_full
_citation_year
_citation_journal_volume
_citation_page_first
_citation_page_last
_citation_journal_id_ASTM
primary 'Revue de Chimie Minerale' 1984 21 152 158 RVCMA8
loop_
_publ_author_name
'Bois, C.'
'Papin, G.'
'Philoche-Levisalles, M.'
_cell_length_a 9.530(2)
_cell_length_b 11.700(2)
_cell_length_c 11.335(2)
_cell_angle_alpha 90.
_cell_angle_beta 131.85(4)
_cell_angle_gamma 90.
_cell_volume 941.44
_cell_formula_units_Z 4
_symmetry_space_group_name_H-M 'P 1 21/c 1'
_symmetry_Int_Tables_number 14
_refine_ls_R_factor_all 0.047
loop_
_symmetry_equiv_pos_site_id
_symmetry_equiv_pos_as_xyz
1 'x, -y+1/2, z+1/2'
2 '-x, -y, -z'
3 '-x, y+1/2, -z+1/2'
4 'x, y, z'
loop_
_atom_type_symbol
_atom_type_oxidation_number
K1+ 1
Na1+ 1
C4+ 4
O2- -2
H1+ 1
loop_
_atom_site_label
_atom_site_type_symbol
_atom_site_symmetry_multiplicity
_atom_site_Wyckoff_symbol
_atom_site_fract_x
_atom_site_fract_y
_atom_site_fract_z
_atom_site_B_iso_or_equiv
_atom_site_occupancy
_atom_site_attached_hydrogens
K1 K1+ 4 e 0.0185(1) 0.0944(1) 0.3595(1) . 1. 0
Na1 Na1+ 4 e 0.1875(2) 0.0885(1) 0.0699(1) . 1. 0
C1 C4+ 4 e -.3757(4) 0.2489(2) 0.0538(3) . 1. 0
O1 O2- 4 e -.4057(3) 0.3302(2) 0.1117(2) . 1. 0
O2 O2- 4 e -.2136(3) 0.2381(2) 0.0964(2) . 1. 0
O3 O2- 4 e -.5103(3) 0.1802(2) -.0482(2) . 1. 0
O4 O2- 4 e 0.2779(3) 0.0615(2) 0.3255(2) . 1. 0
O5 O2- 4 e -.2056(3) 0.0796(2) 0.4270(3) . 1. 0
O6 O2- 4 e 0.3200(3) 0.2785(2) 0.1311(3) . 1. 0
O7 O2- 4 e 0.1287(3) -.1215(2) 0.0589(2) . 1. 0
O8 O2- 4 e 0.0993(3) 0.1218(2) -.1885(3) . 1. 0
O9 O2- 4 e 0.4649(3) 0.0271(2) 0.1292(2) . 1. 0
H1 H1+ 4 e 0.3596(49) 0.0916(31) 0.3958(43) 2.3 1. 0
H2 H1+ 4 e 0.3049(49) -.0138(33) 0.3478(43) 2.3 1. 0
H3 H1+ 4 e -.3042(51) 0.0704(31) 0.3433(46) 2.7 1. 0
H4 H1+ 4 e -.2164(51) 0.1392(32) 0.4658(46) 2.7 1. 0
H5 H1+ 4 e 0.3675(50) 0.2855(32) 0.2211(44) 2.5 1. 0
H6 H1+ 4 e 0.4030(48) 0.2896(32) 0.1267(44) 2.5 1. 0
H7 H1+ 4 e 0.1518(46) -.1562(30) 0.0082(42) 2.1 1. 0
H8 H1+ 4 e 0.1991(48) -.1478(31) 0.1521(43) 2.1 1. 0
H9 H1+ 4 e 0.1866(52) 0.1539(33) -.1699(45) 2.6 1. 0
H10 H1+ 4 e 0.0121(53) 0.1639(32) -.2502(45) 2.6 1. 0
H11 H1+ 4 e 0.4717(50) 0.0674(31) 0.0810(43) 2. 1. 0
H12 H1+ 4 e 0.4638(49) -.0315(33) 0.1026(42) 2. 1. 0
loop_
_atom_site_aniso_label
_atom_site_aniso_type_symbol
_atom_site_aniso_beta_11
_atom_site_aniso_beta_22
_atom_site_aniso_beta_33
_atom_site_aniso_beta_12
_atom_site_aniso_beta_13
_atom_site_aniso_beta_23
K1 K1+ 0.0130(1) 0.0059(1) 0.0103(1) 0.0019(1) 0.0078(1) 0.0024(1)
Na1 Na1+ 0.0092(2) 0.0035(1) 0.0079(2) 0.0000(1) 0.0058(2) 0.0002(1)
C1 C4+ 0.0089(5) 0.0023(2) 0.0052(4) 0.0001(3) 0.0046(4) 0.0007(2)
O1 O2- 0.0114(4) 0.0036(2) 0.0086(3) -.0002(2) 0.0069(3) -.0014(2)
O2 O2- 0.0091(3) 0.0048(2) 0.0091(2) 0.0001(2) 0.0065(3) -.0007(2)
O3 O2- 0.0100(4) 0.0033(2) 0.0074(3) -.0015(2) 0.0054(3) -.0014(2)
O4 O2- 0.0128(5) 0.0043(2) 0.0080(3) -.0008(2) 0.0057(3) -.0005(2)
O5 O2- 0.0129(5) 0.0059(2) 0.0092(3) 0.0018(3) 0.0057(3) -.0009(2)
O6 O2- 0.0141(5) 0.0046(2) 0.0099(3) -.0018(2) 0.0083(4) -.0013(2)
O7 O2- 0.0110(4) 0.0048(2) 0.0074(3) 0.0017(2) 0.0060(3) 0.0001(2)
O8 O2- 0.0112(4) 0.0073(2) 0.0085(3) 0.0006(3) 0.0054(3) 0.0013(2)
O9 O2- 0.0127(4) 0.0037(2) 0.0096(3) 0.0005(2) 0.0078(3) 0.0002(2)
#End of TTdata_201521-ICSD