
#(C) 2019 by FIZ Karlsruhe - Leibniz Institute for Information Infrastructure.  All rights reserved.
data_2244-ICSD
_database_code_ICSD 2244
_audit_creation_date 1980-01-01
_chemical_name_systematic 'Sodium cyanide dihydrate'
_chemical_formula_structural 'Na C N (H2 O)2'
_chemical_formula_sum 'C1 H4 N1 Na1 O2'
_exptl_crystal_density_diffrn 1.37
_publ_section_title
'The crystal structure of sodium cyanide dihydrate, Na C N (H2 O)2'
loop_
_citation_id
_citation_journal_full
_citation_year
_citation_journal_volume
_citation_page_first
_citation_page_last
_citation_journal_id_ASTM
primary

;
Acta Crystallographica, Section B: Structural Crystallography and Crystal
Chemistry
; 1978 34 2080 2084 ACBCAR
loop_
_publ_author_name
'van Rij, C.'
'Britton, D.'
_cell_length_a 6.622(3)
_cell_length_b 10.561(4)
_cell_length_c 6.064(3)
_cell_angle_alpha 90.
_cell_angle_beta 103.06(4)
_cell_angle_gamma 90.
_cell_volume 413.12
_cell_formula_units_Z 4
_symmetry_space_group_name_H-M 'P 1 21/a 1'
_symmetry_Int_Tables_number 14
_refine_ls_R_factor_all 0.056
loop_
_symmetry_equiv_pos_site_id
_symmetry_equiv_pos_as_xyz
1 'x+1/2, -y+1/2, z'
2 '-x, -y, -z'
3 '-x+1/2, y+1/2, -z'
4 'x, y, z'
loop_
_atom_type_symbol
_atom_type_oxidation_number
Na1+ 1
O2- -2
N3- -3
C2+ 2
H1+ 1
loop_
_atom_site_label
_atom_site_type_symbol
_atom_site_symmetry_multiplicity
_atom_site_Wyckoff_symbol
_atom_site_fract_x
_atom_site_fract_y
_atom_site_fract_z
_atom_site_B_iso_or_equiv
_atom_site_occupancy
_atom_site_attached_hydrogens
Na1 Na1+ 4 e 0.9429(1) 0.1700(1) 0.0078(1) . 1. 0
O1 O2- 4 e 0.6852(2) 0.3010(1) 0.7546(2) . 1. 0
O2 O2- 4 e 0.6936(2) 0.4833(1) 0.2003(2) . 1. 0
N1 N3- 4 e 0.6286(2) 0.1548(1) 0.2383(3) . 1. 0
C1 C2+ 4 e 0.7028(2) 0.0702(2) 0.3185(3) . 1. 0
H1 H1+ 4 e 0.709(3) 0.3707(23) 0.7354(33) 3.6 1. 0
H2 H1+ 4 e 0.6311(47) 0.2614(30) 0.639(5) 6.3 1. 0
H3 H1+ 4 e 0.8043(30) 0.4599(20) 0.1984(30) 3.5 1. 0
H4 H1+ 4 e 0.7029(36) 0.4983(22) 0.3194(48) 5.3 1. 0
loop_
_atom_site_aniso_label
_atom_site_aniso_type_symbol
_atom_site_aniso_B_11
_atom_site_aniso_B_22
_atom_site_aniso_B_33
_atom_site_aniso_B_12
_atom_site_aniso_B_13
_atom_site_aniso_B_23
Na1 Na1+ 3.25(2) 2.56(2) 3.76(2) -.16(1) 0.50(2) -.33(1)
O1 O2- 4.49(5) 2.94(4) 3.90(4) 0.02(3) 0.80(4) 0.03(3)
O2 O2- 3.27(4) 3.38(4) 3.16(4) 0.52(3) 0.14(2) -.19(3)
N1 N3- 4.58(6) 3.97(6) 5.80(7) 0.50(5) 1.07(5) 1.17(5)
C1 C2+ 4.88(6) 4.40(7) 4.73(7) 0.52(5) 1.32(5) 1.15(5)
#End of TTdata_2244-ICSD