
#(C) 2019 by FIZ Karlsruhe - Leibniz Institute for Information Infrastructure.  All rights reserved.
data_237615-ICSD
_database_code_ICSD 237615
_audit_creation_date 2015-02-01
_chemical_name_systematic 'Disodium cobalt tetraformate'
_chemical_formula_structural 'Na2 Co (H C O O)4'
_chemical_formula_sum 'C4 H4 Co1 Na2 O8'
_exptl_crystal_density_diffrn 2.11
_cell_measurement_temperature 293.
_publ_section_title

;
Tuning the structure and magnetism of heterometallic sodium(1+)-cobalt(2+)
formate coordination polymers by varying the metal ratio and solvents
;
loop_
_citation_id
_citation_journal_full
_citation_year
_citation_journal_volume
_citation_page_first
_citation_page_last
_citation_journal_id_ASTM
primary 'Inorganic Chemistry' 2013 52 2862 2869 INOCAJ
loop_
_publ_author_name
'Zhao, Jiong-Peng'
'Han, Song-De'
'Zhao, Ran'
'Yang, Qian'
'Chang, Ze'
'Bu, Xian-He'
_cell_length_a 15.694(3)
_cell_length_b 8.8836(18)
_cell_length_c 6.7448(13)
_cell_angle_alpha 90.
_cell_angle_beta 107.35(3)
_cell_angle_gamma 90.
_cell_volume 897.56
_cell_formula_units_Z 4
_symmetry_space_group_name_H-M 'C 1 2/c 1'
_symmetry_Int_Tables_number 15
_refine_ls_R_factor_all 0.0252
loop_
_symmetry_equiv_pos_site_id
_symmetry_equiv_pos_as_xyz
1 'x, -y, z+1/2'
2 '-x, -y, -z'
3 '-x, y, -z+1/2'
4 'x, y, z'
5 'x+1/2, -y+1/2, z+1/2'
6 '-x+1/2, -y+1/2, -z'
7 '-x+1/2, y+1/2, -z+1/2'
8 'x+1/2, y+1/2, z'
loop_
_atom_type_symbol
_atom_type_oxidation_number
Co2+ 2
Na1+ 1
O2- -2
C4+ 4
H1- -1
loop_
_atom_site_label
_atom_site_type_symbol
_atom_site_symmetry_multiplicity
_atom_site_Wyckoff_symbol
_atom_site_fract_x
_atom_site_fract_y
_atom_site_fract_z
_atom_site_B_iso_or_equiv
_atom_site_occupancy
_atom_site_attached_hydrogens
Co1 Co2+ 4 d 0.25 0.25 0.5 0.01428(12) 1 0
Na1 Na1+ 8 f 0.39720(5) 0.09596(9) 0.31635(11) 0.02453(19) 1 0
O1 O2- 8 f 0.12393(9) 0.32301(15) 0.3192(2) 0.0256(3) 1 0
O2 O2- 8 f 0.24668(9) 0.04667(13) 0.3352(2) 0.0222(3) 1 0
O3 O2- 8 f 0.18491(8) -0.17372(13) 0.21341(19) 0.0232(3) 1 0
O4 O2- 8 f 0.05335(9) 0.35567(17) -0.0143(2) 0.0317(3) 1 0
C1 C4+ 8 f 0.19270(13) -0.0578(2) 0.3218(3) 0.0215(4) 1 0
C2 C4+ 8 f 0.08275(15) 0.2769(2) 0.1408(3) 0.0288(4) 1 0
H1 H1- 8 f 0.0707(16) 0.170(3) 0.127(4) 0.044(7) 1 0
H2 H1- 8 f 0.1539(16) -0.055(3) 0.396(4) 0.038(6) 1 0
loop_
_atom_site_aniso_label
_atom_site_aniso_type_symbol
_atom_site_aniso_U_11
_atom_site_aniso_U_22
_atom_site_aniso_U_33
_atom_site_aniso_U_12
_atom_site_aniso_U_13
_atom_site_aniso_U_23
Co1 Co2+ 0.01759(19) 0.01192(19) 0.01342(18) 0.00158(11) 0.00475(13)
-0.00064(11)
Na1 Na1+ 0.0225(4) 0.0234(4) 0.0286(4) 0.0041(3) 0.0091(3) 0.0027(3)
O1 O2- 0.0231(7) 0.0320(8) 0.0190(6) 0.0069(6) 0.0021(5) -0.0005(5)
O2 O2- 0.0261(7) 0.0162(6) 0.0261(7) -0.0037(5) 0.0107(5) -0.0077(5)
O3 O2- 0.0316(7) 0.0177(6) 0.0250(7) -0.0069(5) 0.0154(6) -0.0074(5)
O4 O2- 0.0262(7) 0.0457(9) 0.0206(7) 0.0032(6) 0.0030(6) 0.0073(6)
C1 C4+ 0.0284(10) 0.0200(9) 0.0196(9) -0.0026(7) 0.0124(8) -0.0039(7)
C2 C4+ 0.0340(11) 0.0227(9) 0.0260(11) 0.0069(8) 0.0034(9) -0.0026(8)
#End of TTdata_237615-ICSD