
#(C) 2019 by FIZ Karlsruhe - Leibniz Institute for Information Infrastructure.  All rights reserved.
data_237617-ICSD
_database_code_ICSD 237617
_audit_creation_date 2015-02-01
_chemical_name_systematic 'Disodium heptacobalt hexadecaformate'
_chemical_formula_structural 'Na2 Co7 (H C O O)16'
_chemical_formula_sum 'C16 H16 Co7 Na2 O32'
_exptl_crystal_density_diffrn 2.28
_cell_measurement_temperature 293.
_publ_section_title

;
Tuning the structure and magnetism of heterometallic sodium(1+)-cobalt(2+)
formate coordination polymers by varying the metal ratio and solvents
;
loop_
_citation_id
_citation_journal_full
_citation_year
_citation_journal_volume
_citation_page_first
_citation_page_last
_citation_journal_id_ASTM
primary 'Inorganic Chemistry' 2013 52 2862 2869 INOCAJ
loop_
_publ_author_name
'Zhao, Jiong-Peng'
'Han, Song-De'
'Zhao, Ran'
'Yang, Qian'
'Chang, Ze'
'Bu, Xian-He'
_cell_length_a 8.2693(17)
_cell_length_b 8.4170(17)
_cell_length_c 12.645(3)
_cell_angle_alpha 90.27(3)
_cell_angle_beta 95.85(3)
_cell_angle_gamma 100.93(3)
_cell_volume 859.39
_cell_formula_units_Z 1
_symmetry_space_group_name_H-M 'P -1'
_symmetry_Int_Tables_number 2
_refine_ls_R_factor_all 0.0842
loop_
_symmetry_equiv_pos_site_id
_symmetry_equiv_pos_as_xyz
1 '-x, -y, -z'
2 'x, y, z'
loop_
_atom_type_symbol
_atom_type_oxidation_number
Co2+ 2
Na1+ 1
O2- -2
C4+ 4
H1- -1
C4+ 4
H1- -1
C4+ 4
H1- -1
C4+ 4
H1- -1
C4+ 4
H1- -1
C4+ 4
H1- -1
C4+ 4
H1- -1
C4+ 4
H1- -1
loop_
_atom_site_label
_atom_site_type_symbol
_atom_site_symmetry_multiplicity
_atom_site_Wyckoff_symbol
_atom_site_fract_x
_atom_site_fract_y
_atom_site_fract_z
_atom_site_B_iso_or_equiv
_atom_site_occupancy
_atom_site_attached_hydrogens
Co1 Co2+ 1 b 0. 1. 0.5 0.0225(5) 1 0
Co2 Co2+ 2 i 0.38441(17) 0.72342(16) 0.23520(10) 0.0215(4) 1 0
Co3 Co2+ 2 i 0.06929(17) 0.96661(16) 0.25620(10) 0.0213(4) 1 0
Co4 Co2+ 2 i 0.23270(17) 1.35807(16) 0.16132(10) 0.0230(4) 1 0
Na1 Na1+ 2 i -0.2715(5) 0.7724(5) 0.0879(3) 0.0281(10) 1 0
O1 O2- 2 i 0.3517(9) 0.7433(8) 0.3945(5) 0.0281(18) 1 0
O2 O2- 2 i 0.1631(8) 0.9007(8) 0.4106(5) 0.0251(17) 1 0
O3 O2- 2 i 0.1500(8) 0.5714(8) 0.2063(5) 0.0265(18) 1 0
O4 O2- 2 i -0.0435(8) 0.7264(8) 0.2104(5) 0.0286(18) 1 0
O5 O2- 2 i -0.1353(8) 0.9734(8) 0.3482(5) 0.0243(17) 1 0
O6 O2- 2 i -0.3676(8) 0.8462(8) 0.2522(5) 0.0259(17) 1 0
O7 O2- 2 i -0.0714(8) 1.0134(8) 0.1186(5) 0.0270(18) 1 0
O8 O2- 2 i 0.0059(9) 1.2745(9) 0.0749(5) 0.036(2) 1 0
O9 O2- 2 i 0.1159(9) 1.2313(8) 0.4669(5) 0.0304(19) 1 0
O10 O2- 2 i 0.1566(8) 1.2189(7) 0.2933(5) 0.0239(17) 1 0
O11 O2- 2 i 0.4174(8) 0.7208(8) 0.0733(5) 0.0245(17) 1 0
O12 O2- 2 i 0.2968(9) 0.4674(8) 0.0169(5) 0.0272(18) 1 0
O13 O2- 2 i 0.3314(9) 1.1688(8) 0.1028(5) 0.0278(18) 1 0
O14 O2- 2 i 0.2991(8) 0.9464(8) 0.2038(5) 0.0225(17) 1 0
O15 O2- 2 i 0.4400(8) 0.4933(8) 0.2473(5) 0.0257(18) 1 0
O16 O2- 2 i 0.5967(13) 0.3093(14) 0.3001(10) 0.110(5) 1 0
C1 C4+ 2 i 0.2609(14) 0.8090(12) 0.4455(8) 0.030(3) 1 0
H1 H1- 2 i 0.265 0.7889 0.5179 0.036 1 0
C2 C4+ 2 i 0.0023(13) 0.5973(13) 0.1965(8) 0.028(3) 1 0
H2 H1- 2 i -0.0809 0.5082 0.1768 0.033 1 0
C3 C4+ 2 i -0.2901(14) 0.9095(13) 0.3371(8) 0.033(3) 1 0
H3 H1- 2 i -0.3488 0.9106 0.396 0.04 1 0
C4 C4+ 2 i -0.0817(13) 1.1396(12) 0.0668(8) 0.025(3) 1 0
H4 H1- 2 i -0.1703 1.1283 0.0141 0.03 1 0
C5 C4+ 2 i 0.1612(14) 1.2889(14) 0.3831(8) 0.034(3) 1 0
H5 H1- 2 i 0.2048 1.3993 0.3858 0.041 1 0
C6 C4+ 2 i 0.3610(12) 0.6116(13) 0.0020(8) 0.025(3) 1 0
H6 H1- 2 i 0.3684 0.6421 -0.0682 0.029 1 0
C7 C4+ 2 i 0.3768(15) 1.0480(13) 0.1438(8) 0.037(3) 1 0
H7 H1- 2 i 0.4797 1.03 0.1288 0.044 1 0
C8 C4+ 2 i 0.5626(14) 0.4456(13) 0.3007(9) 0.038(3) 1 0
H8 H1- 2 i 0.6336 0.5232 0.3446 0.046 1 0
loop_
_atom_site_aniso_label
_atom_site_aniso_type_symbol
_atom_site_aniso_U_11
_atom_site_aniso_U_22
_atom_site_aniso_U_33
_atom_site_aniso_U_12
_atom_site_aniso_U_13
_atom_site_aniso_U_23
Co1 Co2+ 0.0225(12) 0.0288(12) 0.0141(11) 0.0023(10) -0.0030(9) -0.0050(9)
Co2 Co2+ 0.0215(8) 0.0213(8) 0.0196(8) 0.0032(7) -0.0055(6) -0.0047(6)
Co3 Co2+ 0.0226(9) 0.0229(8) 0.0169(8) 0.0031(7) -0.0023(6) -0.0049(6)
Co4 Co2+ 0.0256(9) 0.0204(8) 0.0218(8) 0.0047(7) -0.0039(7) -0.0033(6)
Na1 Na1+ 0.030(3) 0.028(2) 0.025(2) 0.004(2) -0.0034(19) -0.0070(19)
O1 O2- 0.030(5) 0.032(4) 0.024(4) 0.015(4) -0.004(3) -0.009(3)
O2 O2- 0.019(4) 0.038(5) 0.020(4) 0.014(4) -0.006(3) -0.001(3)
O3 O2- 0.028(4) 0.021(4) 0.028(4) 0.006(3) -0.013(3) -0.010(3)
O4 O2- 0.030(5) 0.018(4) 0.037(5) 0.008(4) -0.010(4) -0.008(3)
O5 O2- 0.013(4) 0.038(4) 0.020(4) 0.002(3) -0.004(3) -0.007(3)
O6 O2- 0.022(4) 0.032(4) 0.019(4) 0.001(3) -0.012(3) -0.012(3)
O7 O2- 0.027(4) 0.023(4) 0.027(4) -0.002(4) -0.002(4) -0.006(3)
O8 O2- 0.038(5) 0.029(5) 0.034(5) -0.001(4) -0.019(4) -0.004(4)
O9 O2- 0.044(5) 0.024(4) 0.019(4) -0.005(4) 0.002(4) -0.003(3)
O10 O2- 0.033(5) 0.016(4) 0.021(4) 0.004(3) 0.001(3) -0.005(3)
O11 O2- 0.030(4) 0.019(4) 0.021(4) -0.001(3) -0.003(3) -0.009(3)
O12 O2- 0.034(5) 0.024(4) 0.020(4) 0.001(4) -0.003(3) -0.004(3)
O13 O2- 0.038(5) 0.022(4) 0.028(4) 0.014(4) 0.008(4) 0.002(3)
O14 O2- 0.028(4) 0.019(4) 0.018(4) -0.001(3) -0.001(3) 0.005(3)
O15 O2- 0.015(4) 0.021(4) 0.035(4) -0.003(3) -0.012(3) -0.001(3)
O16 O2- 0.085(9) 0.096(9) 0.147(12) 0.044(8) -0.050(8) -0.038(8)
C1 C4+ 0.039(7) 0.028(7) 0.019(6) 0.001(6) -0.007(5) -0.009(5)
C2 C4+ 0.019(6) 0.026(7) 0.036(7) 0.001(5) -0.004(5) -0.009(5)
C3 C4+ 0.033(7) 0.050(8) 0.017(6) 0.008(6) 0.004(5) -0.005(5)
C4 C4+ 0.024(6) 0.023(6) 0.025(6) 0.003(5) -0.008(5) -0.004(5)
C5 C4+ 0.039(8) 0.033(7) 0.027(7) 0.004(6) -0.004(6) -0.007(6)
C6 C4+ 0.012(6) 0.039(7) 0.022(6) 0.001(5) 0.004(5) 0.004(5)
C7 C4+ 0.042(8) 0.030(7) 0.032(7) 0.000(6) -0.009(6) -0.022(6)
C8 C4+ 0.041(8) 0.020(6) 0.053(8) 0.020(6) -0.020(6) -0.016(6)
#End of TTdata_237617-ICSD