
#(C) 2019 by FIZ Karlsruhe - Leibniz Institute for Information Infrastructure.  All rights reserved.
data_237918-ICSD
_database_code_ICSD 237918
_audit_creation_date 2015-08-01
_chemical_name_systematic 'Lutetium pentasodium tetracarbonate dihydrate'
_chemical_formula_structural 'Lu Na5 (C O3)4 (H2 O)2'
_chemical_formula_sum 'C4 H4 Lu1 Na5 O14'
_chemical_name_structure_type Na5Sc(CO3)4(H2O)2
_exptl_crystal_density_diffrn 2.83
_cell_measurement_temperature 293.
_publ_section_title

;
Na8 Lu2 (C O3)6 F2 and Na3 Lu (C O3)2 F2: Rare earth fluoride carbonates as
deep-U V nonlinear optical material
;
loop_
_citation_id
_citation_journal_full
_citation_year
_citation_journal_volume
_citation_page_first
_citation_page_last
_citation_journal_id_ASTM
primary 'Chemistry of Materials' 2013 25 3147 3153 CMATEX
loop_
_publ_author_name
'Luo, Min'
'Ye, Ning'
'Zou, Guohong'
'Lin, Chensheng'
'Cheng, Wendan'
_cell_length_a 7.5879(3)
_cell_length_b 7.5879(3)
_cell_length_c 11.5313(9)
_cell_angle_alpha 90.
_cell_angle_beta 90.
_cell_angle_gamma 90.
_cell_volume 663.92
_cell_formula_units_Z 2
_symmetry_space_group_name_H-M 'P -4 21 c'
_symmetry_Int_Tables_number 114
_refine_ls_R_factor_all 0.0139
loop_
_symmetry_equiv_pos_site_id
_symmetry_equiv_pos_as_xyz
1 'y+1/2, x+1/2, z+1/2'
2 'y, -x, -z'
3 '-y+1/2, -x+1/2, z+1/2'
4 '-y, x, -z'
5 'x+1/2, -y+1/2, -z+1/2'
6 '-x, -y, z'
7 '-x+1/2, y+1/2, -z+1/2'
8 'x, y, z'
loop_
_atom_type_symbol
_atom_type_oxidation_number
Lu3+ 3
Na1+ 1
O2- -2
H1+ 1
O2- -2
C4+ 4
loop_
_atom_site_label
_atom_site_type_symbol
_atom_site_symmetry_multiplicity
_atom_site_Wyckoff_symbol
_atom_site_fract_x
_atom_site_fract_y
_atom_site_fract_z
_atom_site_B_iso_or_equiv
_atom_site_occupancy
_atom_site_attached_hydrogens
Lu1 Lu3+ 2 a 0. 0. 0. 0.01066(7) 1 0
Na1 Na1+ 2 b 0.5 -0.5 0. 0.0240(5) 1 0
Na2 Na1+ 8 e 0.32246(14) -0.18141(14) 0.20771(10) 0.0217(2) 1 0
O1 O2- 4 d 0.5 0. 0.3323(2) 0.0227(6) 1 0
H1 H1+ 8 e 0.436 0.076 0.3809 0.034 1 0
O2 O2- 8 e 0.1677(3) -0.2530(3) 0.03105(16) 0.0174(4) 1 0
O3 O2- 8 e -0.1800(3) -0.0953(3) 0.14718(17) 0.0167(4) 1 0
O4 O2- 8 e 0.5905(2) -0.2732(3) 0.11908(18) 0.0257(5) 1 0
C1 C4+ 8 e 0.7137(4) -0.1835(4) 0.0797(2) 0.0154(6) 1 0
loop_
_atom_site_aniso_label
_atom_site_aniso_type_symbol
_atom_site_aniso_U_11
_atom_site_aniso_U_22
_atom_site_aniso_U_33
_atom_site_aniso_U_12
_atom_site_aniso_U_13
_atom_site_aniso_U_23
Lu1 Lu3+ 0.01013(8) 0.01013(8) 0.01171(10) 0. 0. 0.
Na1 Na1+ 0.0222(7) 0.0222(7) 0.0275(11) 0. 0. 0.
Na2 Na1+ 0.0244(6) 0.0230(6) 0.0175(5) -0.0009(6) -0.0021(5) 0.0033(5)
O1 O2- 0.0268(16) 0.0194(14) 0.0218(13) 0.0053(15) 0. 0.
O2 O2- 0.0214(11) 0.0138(10) 0.0169(10) 0.0018(9) -0.0023(9) -0.0009(8)
O3 O2- 0.0161(11) 0.0192(11) 0.0147(9) -0.0016(9) 0.0011(9) 0.0009(9)
O4 O2- 0.0195(11) 0.0261(12) 0.0315(11) -0.0079(10) 0.0109(10) -0.0027(11)
C1 C4+ 0.0177(17) 0.0094(14) 0.0192(13) 0.0036(12) 0.0006(11) -0.0011(12)
#End of TTdata_237918-ICSD