
#(C) 2019 by FIZ Karlsruhe - Leibniz Institute for Information Infrastructure.  All rights reserved.
data_240731-ICSD
_database_code_ICSD 240731
_audit_creation_date 2007-04-01
_chemical_name_systematic 'Tetrasodium(I) pentaoxalatodicerate(III) dihydrate'
_chemical_formula_structural '(Na4 (H2 O)2) (Ce2 (C2 O4)5)'
_chemical_formula_sum 'C10 H4 Ce2 Na4 O22'
_chemical_name_structure_type Na4(H2O)2La2(C2O4)5
_exptl_crystal_density_diffrn 2.63
_publ_section_title 'Tetrasodium(I) pentaoxalatodicerate(III) dihydrate'
loop_
_citation_id
_citation_journal_full
_citation_year
_citation_journal_volume
_citation_page_first
_citation_page_last
_citation_journal_id_ASTM
primary 'Acta Crystallographica, Section E: Structure Reports Online' 2007 63
m319 m320 ACSEBH
loop_
_publ_author_name
'Lu Hui'
'Fu Yunlong'
'Yang Junying'
'Ng Seik Weng'
_cell_length_a 7.8378(6)
_cell_length_b 11.6470(10)
_cell_length_c 11.9380(10)
_cell_angle_alpha 90.
_cell_angle_beta 101.0300(10)
_cell_angle_gamma 90.
_cell_volume 1069.65
_cell_formula_units_Z 2
_symmetry_space_group_name_H-M 'P 1 21/n 1'
_symmetry_Int_Tables_number 14
_refine_ls_R_factor_all 0.031
loop_
_symmetry_equiv_pos_site_id
_symmetry_equiv_pos_as_xyz
1 '-x+1/2, y+1/2, -z+1/2'
2 '-x, -y, -z'
3 'x+1/2, -y+1/2, z+1/2'
4 'x, y, z'
loop_
_atom_type_symbol
_atom_type_oxidation_number
Ce3+ 3
Na1+ 1
O2- -2
H1+ 1
C3+ 3
loop_
_atom_site_label
_atom_site_type_symbol
_atom_site_symmetry_multiplicity
_atom_site_Wyckoff_symbol
_atom_site_fract_x
_atom_site_fract_y
_atom_site_fract_z
_atom_site_B_iso_or_equiv
_atom_site_occupancy
_atom_site_attached_hydrogens
Ce1 Ce3+ 4 e 0.62360(3) 0.314478(18) 0.326801(18) 0.01004(11) 1 0
Na1 Na1+ 4 e 0.8585(2) 0.29535(17) 0.07326(16) 0.0241(4) 1 0
Na2 Na1+ 4 e 0.8855(2) 0.68800(16) 0.66598(15) 0.0207(5) 1 0
O1 O2- 4 e 0.7047(4) 0.4783(3) 0.4669(3) 0.0242(7) 1 0
O2 O2- 4 e 0.6146(4) 0.6175(2) 0.5689(3) 0.0158(6) 1 0
O3 O2- 4 e 0.5317(4) 0.5063(3) 0.2363(3) 0.0231(7) 1 0
O4 O2- 4 e 0.6375(4) 0.6850(2) 0.2482(3) 0.0177(7) 1 0
O5 O2- 4 e 0.8592(4) 0.4268(2) 0.2458(3) 0.0163(6) 1 0
O6 O2- 4 e 0.9360(4) 0.6014(3) 0.1978(3) 0.0235(7) 1 0
O7 O2- 4 e 0.5847(4) 0.2815(3) 0.1135(3) 0.0224(7) 1 0
O8 O2- 4 e 0.4204(4) 0.2178(3) -0.0465(3) 0.0210(7) 1 0
O9 O2- 4 e 0.3026(4) 0.2976(3) 0.2079(3) 0.0199(7) 1 0
O10 O2- 4 e 0.1362(4) 0.2762(3) 0.0343(3) 0.0224(7) 1 0
O11 O2- 4 e 0.7657(5) 0.3901(3) -0.0993(3) 0.0350(9) 1 0
H1 H1+ 4 e 0.675(6) 0.427(7) -0.130(6) 0.10(3) 1 0
H2 H1+ 4 e 0.849(6) 0.409(8) -0.132(6) 0.11(4) 1 0
C1 C3+ 4 e 0.5909(5) 0.5269(3) 0.5100(4) 0.0152(9) 1 0
C2 C3+ 4 e 0.6512(5) 0.5786(4) 0.2385(4) 0.0153(9) 1 0
C3 C3+ 4 e 0.8321(5) 0.5316(3) 0.2274(3) 0.0108(8) 1 0
C4 C3+ 4 e 0.4405(6) 0.2563(4) 0.0520(3) 0.0144(8) 1 0
C5 C3+ 4 e 0.2791(5) 0.2784(4) 0.1027(4) 0.0142(8) 1 0
loop_
_atom_site_aniso_label
_atom_site_aniso_type_symbol
_atom_site_aniso_U_11
_atom_site_aniso_U_22
_atom_site_aniso_U_33
_atom_site_aniso_U_12
_atom_site_aniso_U_13
_atom_site_aniso_U_23
Ce1 Ce3+ 0.01104(16) 0.00935(15) 0.00976(16) 0.00020(7) 0.00207(10) -0.00104(8)
Na1 Na1+ 0.0136(9) 0.0375(11) 0.0226(11) 0.0014(7) 0.0074(8) 0.0012(8)
Na2 Na1+ 0.0094(10) 0.0334(12) 0.0203(11) -0.0007(6) 0.0053(8) 0.0018(7)
O1 O2- 0.0222(17) 0.0250(17) 0.0262(18) -0.0028(13) 0.0070(14) -0.0127(14)
O2 O2- 0.0098(14) 0.0168(15) 0.0208(16) -0.0016(11) 0.0030(12) -0.0078(12)
O3 O2- 0.0179(16) 0.0141(15) 0.036(2) -0.0011(12) 0.0024(14) 0.0078(14)
O4 O2- 0.0168(17) 0.0118(15) 0.0248(18) 0.0017(11) 0.0048(13) 0.0028(12)
O5 O2- 0.0162(15) 0.0114(14) 0.0223(17) -0.0009(11) 0.0061(13) 0.0027(12)
O6 O2- 0.0235(17) 0.0140(15) 0.036(2) 0.0012(13) 0.0134(15) 0.0061(14)
O7 O2- 0.0170(17) 0.0359(18) 0.0137(16) -0.0028(14) 0.0009(13) -0.0048(14)
O8 O2- 0.0106(16) 0.0383(18) 0.0152(16) -0.0047(14) 0.0055(13) -0.0073(14)
O9 O2- 0.0115(16) 0.0334(18) 0.0152(17) 0.0003(13) 0.0038(13) -0.0034(13)
O10 O2- 0.0150(17) 0.0316(18) 0.0209(18) 0.0033(14) 0.0038(13) -0.0053(15)
O11 O2- 0.027(2) 0.042(2) 0.037(2) 0.0078(17) 0.0095(18) 0.0157(18)
C1 C3+ 0.019(2) 0.014(2) 0.011(2) 0.0011(16) 0.0005(17) 0.0010(16)
C2 C3+ 0.018(2) 0.015(2) 0.012(2) 0.0029(16) 0.0023(17) 0.0034(16)
C3 C3+ 0.0021(18) 0.0137(19) 0.017(2) 0.0009(14) 0.0022(15) 0.0006(16)
C4 C3+ 0.013(2) 0.021(2) 0.010(2) -0.0031(16) 0.0039(16) 0.0006(17)
C5 C3+ 0.011(2) 0.017(2) 0.015(2) 0.0029(16) 0.0031(17) -0.0025(17)
#End of TTdata_240731-ICSD