
#(C) 2019 by FIZ Karlsruhe - Leibniz Institute for Information Infrastructure.  All rights reserved.
data_251434-ICSD
_database_code_ICSD 251434
_audit_creation_date 2015-08-01
_chemical_name_systematic
'Octatriacontaoxo-nonatriacontaethoxo-octaicosatitanate sodium'
_chemical_formula_structural 'Ti28 Na O37 (C2 H5 O)39'
_chemical_formula_sum 'C78 H195 Na1 O76 Ti28'
_exptl_crystal_density_diffrn 1.73
_cell_measurement_temperature 90.
_publ_section_title 'Nanosized alkali-metal-doped ethoxotitanate clusters'
loop_
_citation_id
_citation_journal_full
_citation_year
_citation_journal_volume
_citation_page_first
_citation_page_last
_citation_journal_id_ASTM
primary 'Inorganic Chemistry' 2013 52 4750 4752 INOCAJ
loop_
_publ_author_name
'Chen, Yang'
'Trzop, Elzbieta'
'Makal, Anna'
'Sokolow Jesse D.'
'Coppens, Philip'
_cell_length_a 16.368(3)
_cell_length_b 16.391(3)
_cell_length_c 28.014(6)
_cell_angle_alpha 91.44(3)
_cell_angle_beta 93.98(3)
_cell_angle_gamma 107.91(3)
_cell_volume 7125.8
_cell_formula_units_Z 2
_symmetry_space_group_name_H-M 'P -1'
_symmetry_Int_Tables_number 2
_refine_ls_R_factor_all 0.0554
loop_
_symmetry_equiv_pos_site_id
_symmetry_equiv_pos_as_xyz
1 '-x, -y, -z'
2 'x, y, z'
loop_
_atom_type_symbol
_atom_type_oxidation_number
C2- -2
H1+ 1
C2- -2
H1+ 1
C2- -2
H1+ 1
C2- -2
H1+ 1
C2- -2
H1+ 1
C2- -2
H1+ 1
C2- -2
H1+ 1
C2- -2
H1+ 1
C2- -2
H1+ 1
C2- -2
H1+ 1
C2- -2
H1+ 1
C2- -2
H1+ 1
C2- -2
H1+ 1
C2- -2
H1+ 1
C2- -2
H1+ 1
C2- -2
H1+ 1
C2- -2
H1+ 1
C2- -2
H1+ 1
C2- -2
H1+ 1
C2- -2
H1+ 1
C2- -2
H1+ 1
C2- -2
H1+ 1
C2- -2
H1+ 1
C2- -2
H1+ 1
C2- -2
H1+ 1
C2- -2
H1+ 1
C2- -2
H1+ 1
C2- -2
H1+ 1
C2- -2
H1+ 1
C2- -2
H1+ 1
C2- -2
H1+ 1
C2- -2
H1+ 1
C2- -2
H1+ 1
C2- -2
H1+ 1
C2- -2
H1+ 1
C2- -2
H1+ 1
C2- -2
H1+ 1
C2- -2
H1+ 1
C2- -2
H1+ 1
C2- -2
H1+ 1
C2- -2
H1+ 1
C2- -2
H1+ 1
C2- -2
H1+ 1
C2- -2
H1+ 1
C2- -2
H1+ 1
C2- -2
H1+ 1
C2- -2
H1+ 1
C2- -2
H1+ 1
C2- -2
H1+ 1
C2- -2
H1+ 1
C2- -2
H1+ 1
C2- -2
H1+ 1
C2- -2
H1+ 1
C2- -2
H1+ 1
C2- -2
H1+ 1
C2- -2
H1+ 1
C2- -2
H1+ 1
C2- -2
H1+ 1
C2- -2
H1+ 1
C2- -2
H1+ 1
C2- -2
H1+ 1
C2- -2
H1+ 1
C2- -2
H1+ 1
C2- -2
H1+ 1
C2- -2
H1+ 1
C2- -2
H1+ 1
C2- -2
H1+ 1
C2- -2
H1+ 1
C2- -2
H1+ 1
C2- -2
H1+ 1
C2- -2
H1+ 1
C2- -2
H1+ 1
C2- -2
H1+ 1
C2- -2
H1+ 1
C2- -2
H1+ 1
C2- -2
H1+ 1
O2- -2
Na1+ 1
Ti4+ 4
O2- -2
C2- -2
H1+ 1
C2- -2
H1+ 1
C2- -2
H1+ 1
C2- -2
H1+ 1
C2- -2
H1+ 1
C2- -2
H1+ 1
C2- -2
H1+ 1
C2- -2
H1+ 1
C2- -2
H1+ 1
C2- -2
H1+ 1
C2- -2
H1+ 1
C2- -2
H1+ 1
C2- -2
H1+ 1
C2- -2
H1+ 1
C2- -2
H1+ 1
C2- -2
H1+ 1
C2- -2
H1+ 1
C2- -2
H1+ 1
C2- -2
H1+ 1
C2- -2
H1+ 1
C2- -2
H1+ 1
C2- -2
H1+ 1
C2- -2
H1+ 1
C2- -2
H1+ 1
C2- -2
H1+ 1
C2- -2
H1+ 1
C2- -2
H1+ 1
C2- -2
H1+ 1
loop_
_atom_site_label
_atom_site_type_symbol
_atom_site_symmetry_multiplicity
_atom_site_Wyckoff_symbol
_atom_site_fract_x
_atom_site_fract_y
_atom_site_fract_z
_atom_site_B_iso_or_equiv
_atom_site_occupancy
_atom_site_attached_hydrogens
C1 C2- 2 i 0.9443(5) 1.2105(4) 0.0981(3) 0.0528(19) 1 0
H1 H1+ 2 i 0.9929 1.2582 0.1133 0.063 1 0
H2 H1+ 2 i 0.9044 1.2358 0.0803 0.063 1 0
C2 C2- 2 i 0.9774(5) 1.1612(5) 0.0642(3) 0.063(2) 1 0
H3 H1+ 2 i 1.0206 1.1399 0.0811 0.094 1 0
H4 H1+ 2 i 1.0039 1.1983 0.0389 0.094 1 0
H5 H1+ 2 i 0.9299 1.1126 0.0499 0.094 1 0
C3 C2- 2 i 1.2040(5) 1.1855(6) 0.1462(3) 0.080(3) 1 0
H6 H1+ 2 i 1.179 1.2325 0.1516 0.095 1 0
H7 H1+ 2 i 1.1801 1.1572 0.1144 0.095 1 0
C4 C2- 2 i 1.2977(5) 1.2219(7) 0.1461(4) 0.102(4) 1 0
H8 H1+ 2 i 1.3212 1.2535 0.1767 0.153 1 0
H9 H1+ 2 i 1.3116 1.2609 0.1198 0.153 1 0
H10 H1+ 2 i 1.3229 1.1754 0.1417 0.153 1 0
C5 C2- 2 i 1.2898(5) 0.8933(6) 0.1749(3) 0.066(2) 1 0
H11 H1+ 2 i 1.3022 0.8434 0.1601 0.079 1 0
H12 H1+ 2 i 1.3431 0.9284 0.1936 0.079 1 0
C6 C2- 2 i 1.2701(6) 0.9454(7) 0.1360(3) 0.097(3) 1 0
H13 H1+ 2 i 1.2185 0.9112 0.1163 0.146 1 0
H14 H1+ 2 i 1.3188 0.9629 0.1161 0.146 1 0
H15 H1+ 2 i 1.2598 0.9964 0.1499 0.146 1 0
C7 C2- 2 i 1.156(3) 0.728(3) 0.0639(19) 0.063(11) 0.20(2) 0
H16 H1+ 2 i 1.1532 0.7798 0.0469 0.075 0.2 0
H17 H1+ 2 i 1.1903 0.7498 0.0948 0.075 0.2 0
C8 C2- 2 i 1.1892(11) 0.7402(15) 0.0298(7) 0.136(7) 0.80(2) 0
H18 H1+ 2 i 1.227 0.7627 0.059 0.204 0.80(2) 0
H19 H1+ 2 i 1.2074 0.7792 0.0039 0.204 0.80(2) 0
H20 H1+ 2 i 1.1927 0.6834 0.0206 0.204 0.80(2) 0
C9 C2- 2 i 0.8136(9) 0.6710(6) -0.0277(3) 0.124(5) 1 0
H21 H1+ 2 i 0.8762 0.7002 -0.0215 0.148 1 0
H22 H1+ 2 i 0.7879 0.7133 -0.0417 0.148 1 0
C10 C2- 2 i 0.8013(11) 0.6008(8) -0.0640(4) 0.169(7) 1 0
H23 H1+ 2 i 0.8095 0.5506 -0.0484 0.254 1 0
H24 H1+ 2 i 0.8434 0.6194 -0.0879 0.254 1 0
H25 H1+ 2 i 0.7429 0.5856 -0.0798 0.254 1 0
C11 C2- 2 i 1.0699(5) 1.2326(4) 0.2301(3) 0.0527(19) 1 0
H26 H1+ 2 i 1.0179 1.2483 0.2368 0.063 1 0
H27 H1+ 2 i 1.0707 1.2262 0.195 0.063 1 0
C12 C2- 2 i 1.1469(6) 1.3011(4) 0.2494(3) 0.070(2) 1 0
H28 H1+ 2 i 1.1405 1.316 0.2827 0.105 1 0
H29 H1+ 2 i 1.1542 1.3518 0.2302 0.105 1 0
H30 H1+ 2 i 1.1976 1.2815 0.248 0.105 1 0
C13 C2- 2 i 1.2583(4) 1.0610(7) 0.2708(3) 0.105(4) 1 0
H31 H1+ 2 i 1.2693 1.0491 0.2374 0.126 1 0
H32 H1+ 2 i 1.2714 1.0168 0.2908 0.126 1 0
C14 C2- 2 i 1.3158(7) 1.1442(7) 0.2874(4) 0.133(5) 1 0
H33 H1+ 2 i 1.2988 1.1888 0.2705 0.199 1 0
H34 H1+ 2 i 1.3748 1.1478 0.2809 0.199 1 0
H35 H1+ 2 i 1.3127 1.1524 0.3219 0.199 1 0
C15 C2- 2 i 1.1586(5) 0.6409(5) 0.1706(3) 0.074(3) 1 0
H36 H1+ 2 i 1.1843 0.6495 0.2041 0.089 1 0
H37 H1+ 2 i 1.1851 0.6937 0.1537 0.089 1 0
C16 C2- 2 i 1.1776(8) 0.5679(7) 0.1472(5) 0.127(5) 1 0
H38 H1+ 2 i 1.2358 0.5872 0.1364 0.191 1 0
H39 H1+ 2 i 1.1358 0.5451 0.1196 0.191 1 0
H40 H1+ 2 i 1.1737 0.5228 0.1701 0.191 1 0
C17 C2- 2 i 0.9096(6) 0.5199(5) 0.0617(3) 0.080(3) 1 0
H41 H1+ 2 i 0.9271 0.565 0.0383 0.096 1 0
H42 H1+ 2 i 0.8472 0.4902 0.0549 0.096 1 0
C18 C2- 2 i 0.9570(8) 0.4576(6) 0.0554(4) 0.129(5) 1 0
H43 H1+ 2 i 1.0188 0.4863 0.0627 0.193 1 0
H44 H1+ 2 i 0.9465 0.4343 0.0222 0.193 1 0
H45 H1+ 2 i 0.9373 0.4108 0.0771 0.193 1 0
C19 C2- 2 i 0.6384(4) 0.7776(4) -0.0002(2) 0.0454(17) 1 0
H46 H1+ 2 i 0.6071 0.7156 0.0008 0.055 1 0
H47 H1+ 2 i 0.6945 0.7836 -0.0133 0.055 1 0
C20 C2- 2 i 0.5878(6) 0.8187(6) -0.0319(3) 0.073(3) 1 0
H48 H1+ 2 i 0.5315 0.8109 -0.0196 0.109 1 0
H49 H1+ 2 i 0.5798 0.7921 -0.0644 0.109 1 0
H50 H1+ 2 i 0.6188 0.8801 -0.0328 0.109 1 0
C21 C2- 2 i 0.7108(4) 1.0648(4) 0.0690(2) 0.0462(17) 1 0
H51 H1+ 2 i 0.7659 1.082 0.0537 0.055 1 0
H52 H1+ 2 i 0.7153 1.1064 0.0961 0.055 1 0
C22 C2- 2 i 0.6395(6) 1.0661(5) 0.0338(3) 0.078(3) 1 0
H53 H1+ 2 i 0.6349 1.0244 0.0072 0.117 1 0
H54 H1+ 2 i 0.6512 1.1236 0.0215 0.117 1 0
H55 H1+ 2 i 0.5854 1.051 0.0494 0.117 1 0
C23 C2- 2 i 0.9194(13) 1.2301(9) 0.3500(8) 0.108(5) 0.68(2) 0
H56 H1+ 2 i 0.9069 1.1996 0.38 0.13 0.68(2) 0
H57 H1+ 2 i 0.865 1.2359 0.3352 0.13 0.68(2) 0
C24 C2- 2 i 0.9830(11) 1.3168(9) 0.3610(7) 0.108(5) 0.68(2) 0
H58 H1+ 2 i 1.0357 1.3207 0.3453 0.162 0.68(2) 0
H59 H1+ 2 i 0.9967 1.3258 0.3957 0.162 0.68(2) 0
H60 H1+ 2 i 0.9585 1.3607 0.3492 0.162 0.68(2) 0
C25 C2- 2 i 1.0761(5) 1.1176(5) 0.3848(3) 0.058(2) 1 0
H61 H1+ 2 i 1.0896 1.0799 0.4091 0.07 1 0
H62 H1+ 2 i 1.0286 1.1372 0.3955 0.07 1 0
C26 C2- 2 i 1.1545(6) 1.1943(6) 0.3806(3) 0.093(3) 1 0
H63 H1+ 2 i 1.2016 1.1749 0.3701 0.139 1 0
H64 H1+ 2 i 1.172 1.2253 0.4119 0.139 1 0
H65 H1+ 2 i 1.1406 1.2325 0.3572 0.139 1 0
C27 C2- 2 i 1.2175(5) 0.9848(7) 0.4082(3) 0.078(3) 1 0
H66 H1+ 2 i 1.1964 0.9273 0.4215 0.094 1 0
H67 H1+ 2 i 1.2065 1.0266 0.431 0.094 1 0
C28 C2- 2 i 1.3106(5) 1.0065(8) 0.4047(4) 0.109(4) 1 0
H68 H1+ 2 i 1.3223 0.9648 0.3827 0.164 1 0
H69 H1+ 2 i 1.3392 1.005 0.4364 0.164 1 0
H70 H1+ 2 i 1.3326 1.0642 0.3926 0.164 1 0
C29 C2- 2 i 1.0955(6) 0.5246(7) 0.3036(4) 0.093(2) 1 0
H71 H1+ 2 i 1.062 0.463 0.299 0.112 1 0
H72 H1+ 2 i 1.0801 0.5464 0.3339 0.112 1 0
C30 C2- 2 i 1.1858(6) 0.5325(7) 0.3084(4) 0.093(2) 1 0
H73 H1+ 2 i 1.2029 0.5152 0.2778 0.14 1 0
H74 H1+ 2 i 1.1964 0.4953 0.3333 0.14 1 0
H75 H1+ 2 i 1.2194 0.5922 0.3172 0.14 1 0
C31 C2- 2 i 0.9036(6) 0.4276(5) 0.2239(3) 0.071(3) 1 0
H76 H1+ 2 i 0.8412 0.3971 0.2242 0.086 1 0
H77 H1+ 2 i 0.93 0.4326 0.2572 0.086 1 0
C32 C2- 2 i 0.9444(7) 0.3766(6) 0.1925(5) 0.108(4) 1 0
H78 H1+ 2 i 0.9211 0.3751 0.1592 0.162 1 0
H79 H1+ 2 i 0.9315 0.3179 0.2033 0.162 1 0
H80 H1+ 2 i 1.0069 0.404 0.1946 0.162 1 0
C33 C2- 2 i 0.7194(8) 0.3473(6) 0.1358(3) 0.102(3) 1 0
H81 H1+ 2 i 0.6613 0.3489 0.1425 0.123 1 0
H82 H1+ 2 i 0.7386 0.3141 0.1608 0.123 1 0
C34 C2- 2 i 0.7141(7) 0.3038(6) 0.0890(3) 0.105(4) 1 0
H83 H1+ 2 i 0.6935 0.3355 0.0642 0.157 1 0
H84 H1+ 2 i 0.6739 0.2454 0.0891 0.157 1 0
H85 H1+ 2 i 0.7712 0.3011 0.0824 0.157 1 0
C35 C2- 2 i 0.4217(6) 0.6292(11) 0.0775(5) 0.070(4) 0.632(15) 0
H86 H1+ 2 i 0.3909 0.654 0.1001 0.084 0.632(15) 0
H87 H1+ 2 i 0.4187 0.5709 0.0874 0.084 0.632(15) 0
C36 C2- 2 i 0.3797(15) 0.624(2) 0.0284(6) 0.147(8) 0.632(15) 0
H88 H1+ 2 i 0.3206 0.6254 0.0302 0.22 0.632(15) 0
H89 H1+ 2 i 0.3785 0.57 0.0119 0.22 0.632(15) 0
H90 H1+ 2 i 0.4121 0.6725 0.0107 0.22 0.632(15) 0
C37 C2- 2 i 0.4700(5) 0.8411(6) 0.1189(3) 0.061(2) 1 0
H91 H1+ 2 i 0.457 0.8777 0.1441 0.074 1 0
H92 H1+ 2 i 0.4339 0.7811 0.1225 0.074 1 0
C38 C2- 2 i 0.4480(6) 0.8695(7) 0.0706(3) 0.093(3) 1 0
H93 H1+ 2 i 0.4832 0.929 0.0671 0.139 1 0
H94 H1+ 2 i 0.3869 0.8656 0.0674 0.139 1 0
H95 H1+ 2 i 0.4594 0.8325 0.0456 0.139 1 0
C39 C2- 2 i 0.5322(6) 1.0528(6) 0.1770(4) 0.089(3) 1 0
H96 H1+ 2 i 0.5556 1.0796 0.2092 0.106 1 0
H97 H1+ 2 i 0.4782 1.0062 0.1809 0.106 1 0
C40 C2- 2 i 0.5124(8) 1.1170(7) 0.1473(4) 0.112(4) 1 0
H98 H1+ 2 i 0.5644 1.1663 0.146 0.168 1 0
H99 H1+ 2 i 0.4674 1.1359 0.161 0.168 1 0
H100 H1+ 2 i 0.4921 1.092 0.1148 0.168 1 0
C41 C2- 2 i 0.7502(5) 1.1698(3) 0.2416(3) 0.058(2) 1 0
H101 H1+ 2 i 0.7301 1.1603 0.2072 0.07 1 0
H102 H1+ 2 i 0.8118 1.2041 0.2445 0.07 1 0
C42 C2- 2 i 0.7000(8) 1.2152(6) 0.2664(4) 0.115(5) 1 0
H103 H1+ 2 i 0.7347 1.2479 0.2945 0.172 1 0
H104 H1+ 2 i 0.6479 1.1737 0.2766 0.172 1 0
H105 H1+ 2 i 0.6839 1.2546 0.2446 0.172 1 0
C43 C2- 2 i 1.1880(4) 0.7700(5) 0.3368(2) 0.0461(17) 1 0
H106 H1+ 2 i 1.2153 0.83 0.3283 0.055 1 0
H107 H1+ 2 i 1.1944 0.7314 0.3106 0.055 1 0
C44 C2- 2 i 1.2329(5) 0.7526(6) 0.3836(3) 0.070(2) 1 0
H108 H1+ 2 i 1.2236 0.7884 0.4099 0.105 1 0
H109 H1+ 2 i 1.2948 0.7662 0.3802 0.105 1 0
H110 H1+ 2 i 1.209 0.6919 0.3905 0.105 1 0
C45 C2- 2 i 0.4102(8) 0.5070(6) 0.1833(5) 0.070(5) 0.566(17) 0
H111 H1+ 2 i 0.451 0.4741 0.1792 0.084 0.566(17) 0
H112 H1+ 2 i 0.3725 0.5 0.1533 0.084 0.566(17) 0
C46 C2- 2 i 0.3574(11) 0.4749(12) 0.2239(7) 0.104(8) 0.566(17) 0
H113 H1+ 2 i 0.3953 0.4742 0.2524 0.156 0.566(17) 0
H114 H1+ 2 i 0.3191 0.4166 0.2156 0.156 0.566(17) 0
H115 H1+ 2 i 0.3229 0.5127 0.2305 0.156 0.566(17) 0
C47 C2- 2 i 0.4245(4) 0.7631(6) 0.2239(3) 0.060(2) 1 0
H116 H1+ 2 i 0.3983 0.7244 0.1955 0.073 1 0
H117 H1+ 2 i 0.4227 0.8213 0.2166 0.073 1 0
C48 C2- 2 i 0.3723(5) 0.7320(7) 0.2666(4) 0.088(3) 1 0
H118 H1+ 2 i 0.3709 0.6729 0.2726 0.132 1 0
H119 H1+ 2 i 0.3133 0.7337 0.2597 0.132 1 0
H120 H1+ 2 i 0.399 0.7692 0.295 0.132 1 0
C49 C2- 2 i 0.4787(8) 0.9544(7) 0.3026(4) 0.0586(12) 0.602(9) 0
H121 H1+ 2 i 0.4725 0.9185 0.3309 0.07 0.602(9) 0
H122 H1+ 2 i 0.4212 0.941 0.285 0.07 0.602(9) 0
C50 C2- 2 i 0.5079(8) 1.0465(7) 0.3195(5) 0.0586(12) 0.602(9) 0
H123 H1+ 2 i 0.4667 1.0571 0.3407 0.088 0.602(9) 0
H124 H1+ 2 i 0.5112 1.0825 0.2918 0.088 0.602(9) 0
H125 H1+ 2 i 0.5648 1.0604 0.3369 0.088 0.602(9) 0
C51 C2- 2 i 0.7236(8) 1.0850(9) 0.3960(4) 0.078(4) 0.812(18) 0
H126 H1+ 2 i 0.6674 1.0391 0.3942 0.094 0.812(18) 0
H127 H1+ 2 i 0.719 1.1283 0.3728 0.094 0.812(18) 0
C52 C2- 2 i 0.7428(11) 1.1263(12) 0.4454(5) 0.125(6) 0.812(18) 0
H128 H1+ 2 i 0.7464 1.0834 0.4685 0.187 0.812(18) 0
H129 H1+ 2 i 0.6968 1.15 0.453 0.187 0.812(18) 0
H130 H1+ 2 i 0.7978 1.1725 0.4471 0.187 0.812(18) 0
C53 C2- 2 i 0.9194(5) 0.9920(5) 0.4428(2) 0.059(2) 1 0
H131 H1+ 2 i 0.9172 1.0508 0.4376 0.071 1 0
H132 H1+ 2 i 0.9798 0.9958 0.4525 0.071 1 0
C54 C2- 2 i 0.8641(6) 0.9549(7) 0.4822(3) 0.092(3) 1 0
H133 H1+ 2 i 0.8047 0.9537 0.4734 0.139 1 0
H134 H1+ 2 i 0.8859 0.9904 0.5118 0.139 1 0
H135 H1+ 2 i 0.8655 0.8964 0.4872 0.139 1 0
C55 C2- 2 i 1.0046(16) 0.815(2) 0.4776(7) 0.081(3) 0.292(10) 0
H136 H1+ 2 i 0.9527 0.765 0.4792 0.097 0.292(10) 0
H137 H1+ 2 i 1.003 0.8593 0.5021 0.097 0.292(10) 0
C56 C2- 2 i 1.0837(16) 0.789(2) 0.4876(9) 0.081(3) 0.292(10) 0
H138 H1+ 2 i 1.0995 0.7945 0.5221 0.121 0.292(10) 0
H139 H1+ 2 i 1.131 0.8268 0.4711 0.121 0.292(10) 0
H140 H1+ 2 i 1.0724 0.7297 0.4759 0.121 0.292(10) 0
C57 C2- 2 i 0.9417(7) 0.5355(10) 0.4120(3) 0.0644(12) 0.547(8) 0
H141 H1+ 2 i 0.9094 0.4738 0.4136 0.077 0.547(8) 0
H142 H1+ 2 i 0.9138 0.5684 0.4317 0.077 0.547(8) 0
C58 C2- 2 i 1.0321(7) 0.5506(9) 0.4330(5) 0.0644(12) 0.547(8) 0
H143 H1+ 2 i 1.0525 0.5032 0.4227 0.097 0.547(8) 0
H144 H1+ 2 i 1.0334 0.5539 0.468 0.097 0.547(8) 0
H145 H1+ 2 i 1.0694 0.6047 0.422 0.097 0.547(8) 0
C59 C2- 2 i 0.7843(10) 0.4266(7) 0.3121(5) 0.048(5) 0.552(13) 0
H146 H1+ 2 i 0.8441 0.4264 0.3203 0.058 0.552(13) 0
H147 H1+ 2 i 0.76 0.3858 0.2842 0.058 0.552(13) 0
C60 C2- 2 i 0.7314(12) 0.3983(11) 0.3539(6) 0.067(6) 0.552(13) 0
H148 H1+ 2 i 0.7238 0.4486 0.3705 0.101 0.552(13) 0
H149 H1+ 2 i 0.7609 0.3694 0.3761 0.101 0.552(13) 0
H150 H1+ 2 i 0.6748 0.3587 0.3425 0.101 0.552(13) 0
C61 C2- 2 i 0.5633(6) 0.3622(7) 0.2158(4) 0.0625(12) 0.669(10) 0
H151 H1+ 2 i 0.5741 0.3119 0.2004 0.075 0.669(10) 0
H152 H1+ 2 i 0.5327 0.388 0.1918 0.075 0.669(10) 0
C62 C2- 2 i 0.5117(7) 0.3363(7) 0.2571(4) 0.0625(12) 0.669(10) 0
H153 H1+ 2 i 0.5391 0.3042 0.2785 0.094 0.669(10) 0
H154 H1+ 2 i 0.4537 0.2998 0.2457 0.094 0.669(10) 0
H155 H1+ 2 i 0.508 0.3875 0.2745 0.094 0.669(10) 0
C63 C2- 2 i 0.4269(6) 0.4136(8) 0.3687(5) 0.0635(12) 0.589(9) 0
H156 H1+ 2 i 0.4284 0.422 0.4039 0.076 0.589(9) 0
H157 H1+ 2 i 0.4576 0.3717 0.3618 0.076 0.589(9) 0
C64 C2- 2 i 0.3357(7) 0.3793(9) 0.3482(5) 0.0635(12) 0.589(9) 0
H158 H1+ 2 i 0.3022 0.4139 0.3611 0.095 0.589(9) 0
H159 H1+ 2 i 0.3113 0.3196 0.3567 0.095 0.589(9) 0
H160 H1+ 2 i 0.3336 0.382 0.3132 0.095 0.589(9) 0
C65 C2- 2 i 0.4255(4) 0.6575(5) 0.3799(3) 0.063(2) 1 0
H161 H1+ 2 i 0.3948 0.6179 0.3526 0.075 1 0
H162 H1+ 2 i 0.4185 0.7145 0.3743 0.075 1 0
C66 C2- 2 i 0.3874(5) 0.6250(6) 0.4249(4) 0.085(3) 1 0
H163 H1+ 2 i 0.3936 0.5683 0.4301 0.127 1 0
H164 H1+ 2 i 0.3262 0.6206 0.4224 0.127 1 0
H165 H1+ 2 i 0.4173 0.6647 0.4518 0.127 1 0
C67 C2- 2 i 0.6866(7) 0.7801(8) 0.4940(4) 0.106(4) 1 0
H166 H1+ 2 i 0.7451 0.7806 0.506 0.128 1 0
H167 H1+ 2 i 0.6877 0.8404 0.4903 0.128 1 0
C68 C2- 2 i 0.6256(8) 0.7411(8) 0.5289(3) 0.114(4) 1 0
H168 H1+ 2 i 0.5719 0.7044 0.512 0.171 1 0
H169 H1+ 2 i 0.6137 0.7862 0.5481 0.171 1 0
H170 H1+ 2 i 0.6504 0.7063 0.5499 0.171 1 0
C69 C2- 2 i 0.778(2) 0.6055(17) 0.5224(11) 0.122(4) 0.426(15) 0
H171 H1+ 2 i 0.7208 0.5845 0.5357 0.146 0.426(15) 0
H172 H1+ 2 i 0.8102 0.6591 0.5411 0.146 0.426(15) 0
C70 C2- 2 i 0.823(2) 0.5413(18) 0.5336(10) 0.114(7) 0.426(15) 0
H173 H1+ 2 i 0.7942 0.4876 0.5148 0.172 0.426(15) 0
H174 H1+ 2 i 0.8221 0.5305 0.5678 0.172 0.426(15) 0
H175 H1+ 2 i 0.883 0.5637 0.5254 0.172 0.426(15) 0
C71 C2- 2 i 0.5821(9) 0.5232(9) 0.4454(4) 0.074(5) 0.55 0
H176 H1+ 2 i 0.5228 0.5269 0.4426 0.088 0.55 0
H177 H1+ 2 i 0.6119 0.5538 0.4757 0.088 0.55 0
C72 C2- 2 i 0.5803(12) 0.4325(10) 0.4450(6) 0.104(7) 0.55 0
H178 H1+ 2 i 0.6394 0.4298 0.4483 0.157 0.55 0
H179 H1+ 2 i 0.5514 0.4033 0.4146 0.157 0.55 0
H180 H1+ 2 i 0.549 0.4043 0.4717 0.157 0.55 0
C73 C2- 2 i 0.634(2) 0.3291(16) 0.3939(10) 0.0589(8) 0.2 0
H181 H1+ 2 i 0.6216 0.3569 0.4231 0.071 0.2 0
H182 H1+ 2 i 0.6907 0.3202 0.4005 0.071 0.2 0
C74 C2- 2 i 0.567(2) 0.2426(13) 0.3852(13) 0.0589(8) 0.2 0
H183 H1+ 2 i 0.5221 0.2466 0.3611 0.088 0.2 0
H184 H1+ 2 i 0.5408 0.224 0.4152 0.088 0.2 0
H185 H1+ 2 i 0.5938 0.2009 0.3737 0.088 0.2 0
C75 C2- 2 i 0.799(2) 0.3904(18) 0.4151(11) 0.0589(8) 0.2 0
H186 H1+ 2 i 0.862 0.4148 0.4207 0.071 0.2 0
H187 H1+ 2 i 0.7868 0.346 0.3887 0.071 0.2 0
C76 C2- 2 i 0.766(2) 0.3459(19) 0.4594(10) 0.0589(8) 0.2 0
H188 H1+ 2 i 0.7578 0.3877 0.4827 0.088 0.2 0
H189 H1+ 2 i 0.8077 0.3196 0.4733 0.088 0.2 0
H190 H1+ 2 i 0.7108 0.3013 0.451 0.088 0.2 0
O1 O2- 2 i 0.6695(2) 0.6984(3) 0.35823(15) 0.0377(10) 1 0
O2 O2- 2 i 0.8243(2) 0.8385(2) 0.32541(13) 0.0265(8) 1 0
O3 O2- 2 i 0.7829(2) 0.6629(2) 0.28288(13) 0.0289(9) 1 0
O4 O2- 2 i 0.6678(2) 0.7662(2) 0.25784(14) 0.0287(9) 1 0
O5 O2- 2 i 0.8210(2) 0.8949(2) 0.22797(12) 0.0233(8) 1 0
O6 O2- 2 i 0.9253(2) 0.7992(2) 0.25047(12) 0.0225(8) 1 0
O7 O2- 2 i 0.7826(2) 0.7333(2) 0.18873(13) 0.0236(8) 1 0
O8 O2- 2 i 1.0038(2) 0.9892(2) 0.26128(13) 0.0255(8) 1 0
O9 O2- 2 i 0.9244(2) 0.6570(2) 0.18193(13) 0.0288(9) 1 0
O10 O2- 2 i 0.7137(2) 0.8541(2) 0.13520(13) 0.0280(9) 1 0
O11 O2- 2 i 0.8628(2) 0.9749(2) 0.11285(14) 0.0322(9) 1 0
O12 O2- 2 i 1.0002(2) 1.0530(2) 0.16882(14) 0.0324(9) 1 0
O13 O2- 2 i 1.0954(2) 0.9468(2) 0.19119(14) 0.0307(9) 1 0
O14 O2- 2 i 1.0593(3) 0.7912(2) 0.15349(14) 0.0350(10) 1 0
O15 O2- 2 i 0.9183(3) 0.7222(3) 0.09005(14) 0.0370(10) 1 0
O16 O2- 2 i 0.8184(3) 0.8152(2) 0.06746(14) 0.0344(9) 1 0
O17 O2- 2 i 0.7662(2) 1.0218(2) 0.17724(13) 0.0278(9) 1 0
O18 O2- 2 i 0.8920(2) 1.0795(2) 0.23161(13) 0.0283(9) 1 0
O19 O2- 2 i 1.1037(2) 0.8807(2) 0.27872(13) 0.0281(9) 1 0
O20 O2- 2 i 1.0691(2) 0.7378(2) 0.24447(14) 0.0311(9) 1 0
O21 O2- 2 i 0.7768(3) 0.6018(2) 0.11806(14) 0.0366(10) 1 0
O22 O2- 2 i 0.6862(2) 0.6877(2) 0.09721(14) 0.0350(10) 1 0
O23 O2- 2 i 0.6633(2) 0.9021(2) 0.21387(13) 0.0287(9) 1 0
O24 O2- 2 i 0.8709(2) 0.9974(2) 0.30454(13) 0.0282(9) 1 0
O25 O2- 2 i 0.9911(2) 0.8862(2) 0.33123(13) 0.0277(8) 1 0
O26 O2- 2 i 0.9344(2) 0.6477(2) 0.27454(14) 0.0313(9) 1 0
O27 O2- 2 i 0.7719(2) 0.5725(2) 0.20406(14) 0.0335(9) 1 0
O28 O2- 2 i 0.6187(2) 0.7148(2) 0.16937(14) 0.0316(9) 1 0
O29 O2- 2 i 0.7114(2) 0.9353(2) 0.30029(13) 0.0296(9) 1 0
O30 O2- 2 i 0.9305(2) 0.7326(2) 0.34924(13) 0.0291(9) 1 0
O31 O2- 2 i 0.6309(2) 0.5936(2) 0.21897(14) 0.0341(9) 1 0
O32 O2- 2 i 0.5303(3) 0.6261(3) 0.28683(16) 0.0415(11) 1 0
O33 O2- 2 i 0.5725(2) 0.8113(3) 0.33095(15) 0.0392(10) 1 0
O34 O2- 2 i 0.7093(3) 0.8741(3) 0.39023(14) 0.0403(10) 1 0
O35 O2- 2 i 0.8283(3) 0.7640(3) 0.41633(14) 0.0378(10) 1 0
O36 O2- 2 i 0.7914(3) 0.6075(3) 0.37931(15) 0.0389(10) 1 0
O37 O2- 2 i 0.6306(3) 0.5331(3) 0.30936(16) 0.0431(11) 1 0
O38 O2- 2 i 0.9007(3) 1.1605(2) 0.13433(14) 0.0333(9) 1 0
O39 O2- 2 i 1.1799(3) 1.1259(3) 0.18158(15) 0.0403(10) 1 0
O40 O2- 2 i 1.2264(2) 0.8627(3) 0.20679(15) 0.0400(10) 1 0
O41 O2- 2 i 1.0719(3) 0.6850(3) 0.07501(16) 0.0467(11) 1 0
O42 O2- 2 i 0.7807(3) 0.6504(3) 0.01513(15) 0.0474(12) 1 0
O43 O2- 2 i 0.7986(3) 0.9502(3) 0.01568(13) 0.0425(11) 1 0
O44 O2- 2 i 1.0657(2) 1.1524(2) 0.25094(15) 0.0350(10) 1 0
O45 O2- 2 i 1.1701(2) 1.0535(2) 0.27233(14) 0.0346(10) 1 0
O46 O2- 2 i 1.0680(3) 0.6265(3) 0.17028(16) 0.0398(10) 1 0
O47 O2- 2 i 0.9242(3) 0.5593(3) 0.10860(15) 0.0432(11) 1 0
O48 O2- 2 i 0.6528(3) 0.8165(3) 0.04762(14) 0.0384(10) 1 0
O49 O2- 2 i 0.6953(2) 0.9800(3) 0.08659(14) 0.0342(9) 1 0
O50 O2- 2 i 0.9527(3) 1.1828(3) 0.31867(16) 0.0450(11) 1 0
O51 O2- 2 i 1.0491(3) 1.0698(2) 0.33932(14) 0.0361(10) 1 0
O52 O2- 2 i 1.1706(3) 0.9842(3) 0.36485(15) 0.0427(11) 1 0
O53 O2- 2 i 1.0711(3) 0.5681(3) 0.26611(17) 0.0461(12) 1 0
O54 O2- 2 i 0.9158(3) 0.5109(2) 0.20646(16) 0.0417(11) 1 0
O55 O2- 2 i 0.7762(3) 0.4314(3) 0.13851(18) 0.0529(13) 1 0
O56 O2- 2 i 0.5086(3) 0.6808(3) 0.07905(17) 0.0524(13) 1 0
O57 O2- 2 i 0.5599(2) 0.8463(3) 0.12543(15) 0.0394(10) 1 0
O58 O2- 2 i 0.5910(3) 1.0173(3) 0.15852(16) 0.0437(11) 1 0
O59 O2- 2 i 0.7392(3) 1.0910(2) 0.26261(15) 0.0374(10) 1 0
O60 O2- 2 i 1.0994(2) 0.7560(3) 0.34241(14) 0.0348(10) 1 0
O61 O2- 2 i 0.6044(3) 0.5283(3) 0.12872(17) 0.0498(12) 1 0
O62 O2- 2 i 0.4556(3) 0.5942(3) 0.19339(18) 0.0508(12) 1 0
O63 O2- 2 i 0.5139(2) 0.7652(3) 0.23342(16) 0.0394(10) 1 0
O64 O2- 2 i 0.5348(3) 0.9324(3) 0.27289(18) 0.0586(12) 1 0
O65 O2- 2 i 0.7877(3) 1.0495(3) 0.38324(15) 0.0438(11) 1 0
O66 O2- 2 i 0.8918(3) 0.9406(3) 0.39835(14) 0.0362(10) 1 0
O67 O2- 2 i 1.0047(3) 0.8487(3) 0.43176(14) 0.0422(11) 1 0
O68 O2- 2 i 0.9360(3) 0.5591(3) 0.36375(19) 0.0644(12) 1 0
O69 O2- 2 i 0.7848(3) 0.5094(3) 0.30002(16) 0.0447(11) 1 0
O70 O2- 2 i 0.6415(3) 0.4227(3) 0.2336(2) 0.0625(12) 1 0
O71 O2- 2 i 0.6281(3) 0.5615(3) 0.40486(19) 0.0648(15) 1 0
O72 O2- 2 i 0.4681(3) 0.4913(3) 0.3492(2) 0.0635(12) 1 0
O73 O2- 2 i 0.5161(3) 0.6646(3) 0.38259(16) 0.0468(12) 1 0
O74 O2- 2 i 0.5467(3) 0.8282(3) 0.42966(17) 0.0505(12) 1 0
O75 O2- 2 i 0.6626(3) 0.7323(3) 0.44672(16) 0.0465(11) 1 0
O76 O2- 2 i 0.7630(3) 0.6276(3) 0.47772(16) 0.0509(12) 1 0
O77 O2- 2 i 0.6405(14) 0.3868(5) 0.3562(9) 0.0589(8) 0.2 0
O78 O2- 2 i 0.7671(11) 0.4561(14) 0.3988(7) 0.0589(8) 0.2 0
O79 O2- 2 i 0.6859(14) 0.4011(14) 0.3775(9) 0.0589(8) 0.25 0
Na1 Na1+ 2 i 0.96779(17) 0.89031(18) 0.12916(9) 0.0469(6) 1 0
Ti1 Ti4+ 2 i 0.73345(7) 0.73983(7) 0.30810(4) 0.0322(2) 1 0
Ti2 Ti4+ 2 i 0.72076(6) 0.81381(6) 0.19661(4) 0.0245(2) 1 0
Ti3 Ti4+ 2 i 0.90768(6) 0.90009(6) 0.27758(3) 0.0226(2) 1 0
Ti4 Ti4+ 2 i 0.85728(6) 0.68805(6) 0.22638(4) 0.0249(2) 1 0
Ti5 Ti4+ 2 i 0.77634(6) 1.00070(6) 0.24702(4) 0.0270(2) 1 0
Ti6 Ti4+ 2 i 1.01839(6) 0.77542(6) 0.30091(4) 0.0269(2) 1 0
Ti7 Ti4+ 2 i 0.68554(7) 0.62195(7) 0.15654(4) 0.0336(3) 1 0
Ti8 Ti4+ 2 i 0.88823(6) 1.05984(6) 0.16109(4) 0.0260(2) 1 0
Ti9 Ti4+ 2 i 1.11408(6) 0.84710(7) 0.21114(4) 0.0285(2) 1 0
Ti10 Ti4+ 2 i 0.80074(7) 0.69849(7) 0.07445(4) 0.0345(3) 1 0
Ti11 Ti4+ 2 i 1.09075(6) 1.05359(6) 0.20930(4) 0.0291(2) 1 0
Ti12 Ti4+ 2 i 1.00232(7) 0.68889(7) 0.12220(4) 0.0346(3) 1 0
Ti13 Ti4+ 2 i 0.77531(7) 0.90424(7) 0.07205(4) 0.0312(2) 1 0
Ti14 Ti4+ 2 i 0.96967(7) 1.09525(6) 0.28753(4) 0.0307(2) 1 0
Ti15 Ti4+ 2 i 1.09649(6) 0.97777(7) 0.31500(4) 0.0301(2) 1 0
Ti16 Ti4+ 2 i 1.01188(7) 0.61945(7) 0.22902(4) 0.0348(3) 1 0
Ti17 Ti4+ 2 i 0.83794(8) 0.53851(7) 0.15410(4) 0.0389(3) 1 0
Ti18 Ti4+ 2 i 0.60834(7) 0.75395(7) 0.10306(4) 0.0372(3) 1 0
Ti19 Ti4+ 2 i 0.65658(7) 0.95091(7) 0.14971(4) 0.0320(3) 1 0
Ti20 Ti4+ 2 i 0.78865(7) 0.94811(7) 0.35723(4) 0.0318(2) 1 0
Ti21 Ti4+ 2 i 0.91752(7) 0.82954(7) 0.38613(4) 0.0312(2) 1 0
Ti22 Ti4+ 2 i 0.86748(7) 0.61306(7) 0.33333(4) 0.0361(3) 1 0
Ti23 Ti4+ 2 i 0.69276(7) 0.53109(7) 0.25716(5) 0.0399(3) 1 0
Ti24 Ti4+ 2 i 0.55172(6) 0.65995(7) 0.22721(4) 0.0358(3) 1 0
Ti25 Ti4+ 2 i 0.59892(7) 0.86071(7) 0.27467(4) 0.0341(3) 1 0
Ti26 Ti4+ 2 i 0.60776(7) 0.78308(8) 0.39182(4) 0.0404(3) 1 0
Ti27 Ti4+ 2 i 0.73602(7) 0.66495(8) 0.42103(4) 0.0393(3) 1 0
Ti28 Ti4+ 2 i 0.56001(7) 0.58316(8) 0.34437(4) 0.0404(3) 1 0
Ti29 Ti4+ 2 i 0.70238(19) 0.4980(2) 0.35824(13) 0.0589(8) 0.45 0
O80 O2- 2 i 0.9894(10) 0.8820(10) 0.0513(5) 0.038(4) 0.25 0
C77 C2- 2 i 0.4562(7) 0.8727(7) 0.4815(4) 0.112(4) 1 0
H191 H1+ 2 i 0.4053 0.8267 0.4681 0.169 1 0
H192 H1+ 2 i 0.44 0.924 0.4891 0.169 1 0
H193 H1+ 2 i 0.48 0.8539 0.5108 0.169 1 0
C78 C2- 2 i 0.5207(9) 0.8925(7) 0.4468(5) 0.129(5) 1 0
H194 H1+ 2 i 0.4978 0.9177 0.4192 0.155 1 0
H195 H1+ 2 i 0.5722 0.9374 0.4616 0.155 1 0
C79 C2- 2 i 0.9883(7) 0.7615(9) 0.4990(4) 0.081(3) 0.708(10) 0
H196 H1+ 2 i 0.9921 0.8051 0.5244 0.121 0.708(10) 0
H197 H1+ 2 i 1.0075 0.7152 0.5124 0.121 0.708(10) 0
H198 H1+ 2 i 0.9285 0.738 0.4855 0.121 0.708(10) 0
C80 C2- 2 i 1.0435(7) 0.8008(9) 0.4612(4) 0.081(3) 0.708(10) 0
H199 H1+ 2 i 1.0994 0.8387 0.4761 0.097 0.708(10) 0
H200 H1+ 2 i 1.055 0.7552 0.4415 0.097 0.708(10) 0
C81 C2- 2 i 0.9054(7) 1.0082(7) -0.0535(3) 0.125(3) 1 0
H201 H1+ 2 i 0.9567 1.0358 -0.0318 0.188 1 0
H202 H1+ 2 i 0.8815 1.0519 -0.0662 0.188 1 0
H203 H1+ 2 i 0.9213 0.9776 -0.08 0.188 1 0
C82 C2- 2 i 0.3474(15) 0.4596(12) 0.1810(8) 0.076(7) 0.434(17) 0
H204 H1+ 2 i 0.3353 0.4751 0.1483 0.114 0.434(17) 0
H205 H1+ 2 i 0.2942 0.4226 0.1928 0.114 0.434(17) 0
H206 H1+ 2 i 0.3902 0.4289 0.1811 0.114 0.434(17) 0
C83 C2- 2 i 0.3816(11) 0.5392(11) 0.2127(7) 0.082(8) 0.434(17) 0
H207 H1+ 2 i 0.3372 0.5684 0.2146 0.099 0.434(17) 0
H208 H1+ 2 i 0.3971 0.5243 0.2454 0.099 0.434(17) 0
C84 C2- 2 i 1.1042(11) 0.7334(7) 0.0384(5) 0.080(5) 0.80(2) 0
H209 H1+ 2 i 1.1008 0.7919 0.0447 0.096 0.80(2) 0
H210 H1+ 2 i 1.0669 0.7093 0.0088 0.096 0.80(2) 0
C85 C2- 2 i 0.7594(16) 0.5546(14) 0.5025(6) 0.122(4) 0.574(15) 0
H211 H1+ 2 i 0.7865 0.5183 0.4845 0.146 0.574(15) 0
H212 H1+ 2 i 0.6986 0.5209 0.5054 0.146 0.574(15) 0
C86 C2- 2 i 1.204(3) 0.692(3) 0.0381(18) 0.063(11) 0.20(2) 0
H213 H1+ 2 i 1.1988 0.6346 0.0494 0.094 0.20(2) 0
H214 H1+ 2 i 1.2647 0.7276 0.0422 0.094 0.20(2) 0
H215 H1+ 2 i 1.1836 0.6874 0.0042 0.094 0.20(2) 0
C87 C2- 2 i 0.8051(15) 0.5784(13) 0.5510(6) 0.099(6) 0.574(15) 0
H216 H1+ 2 i 0.8637 0.6165 0.5481 0.148 0.574(15) 0
H217 H1+ 2 i 0.8077 0.5265 0.5667 0.148 0.574(15) 0
H218 H1+ 2 i 0.774 0.6081 0.5701 0.148 0.574(15) 0
C88 C2- 2 i 0.4539(14) 0.5976(9) 0.0633(10) 0.070(4) 0.368(15) 0
H219 H1+ 2 i 0.4488 0.5572 0.0895 0.084 0.368(15) 0
H220 H1+ 2 i 0.4764 0.5752 0.0357 0.084 0.368(15) 0
C89 C2- 2 i 0.369(2) 0.610(4) 0.0492(14) 0.147(8) 0.368(15) 0
H221 H1+ 2 i 0.3449 0.6262 0.0776 0.22 0.368(15) 0
H222 H1+ 2 i 0.3292 0.5556 0.0346 0.22 0.368(15) 0
H223 H1+ 2 i 0.3764 0.6546 0.026 0.22 0.368(15) 0
C90 C2- 2 i 0.5104(7) 0.4172(7) 0.0750(4) 0.128(5) 1 0
H224 H1+ 2 i 0.4945 0.4007 0.0409 0.192 1 0
H225 H1+ 2 i 0.4625 0.4304 0.0892 0.192 1 0
H226 H1+ 2 i 0.5228 0.3698 0.0914 0.192 1 0
C91 C2- 2 i 0.5894(5) 0.4957(5) 0.0802(3) 0.079(3) 1 0
H227 H1+ 2 i 0.6401 0.4803 0.0706 0.095 1 0
H228 H1+ 2 i 0.5808 0.5403 0.059 0.095 1 0
C92 C2- 2 i 0.5271(11) 0.9952(9) 0.3061(6) 0.0586(12) 0.398(9) 0
H229 H1+ 2 i 0.519 1.0452 0.2896 0.07 0.398(9) 0
H230 H1+ 2 i 0.5788 1.0151 0.3291 0.07 0.398(9) 0
C93 C2- 2 i 0.4488(11) 0.9496(12) 0.3311(7) 0.0586(12) 0.398(9) 0
H231 H1+ 2 i 0.397 0.9528 0.3125 0.088 0.398(9) 0
H232 H1+ 2 i 0.4524 0.9768 0.3631 0.088 0.398(9) 0
H233 H1+ 2 i 0.4457 0.8893 0.3341 0.088 0.398(9) 0
C94 C2- 2 i 0.9933(11) 0.5829(11) 0.4053(5) 0.0644(12) 0.453(8) 0
H234 H1+ 2 i 0.9857 0.6331 0.4226 0.077 0.453(8) 0
H235 H1+ 2 i 1.0538 0.5971 0.397 0.077 0.453(8) 0
C95 C2- 2 i 0.940(2) 1.273(2) 0.3841(9) 0.082(9) 0.32(2) 0
H236 H1+ 2 i 0.9111 1.2239 0.4028 0.123 0.32(2) 0
H237 H1+ 2 i 0.9227 1.3226 0.3933 0.123 0.32(2) 0
H238 H1+ 2 i 1.0027 1.2865 0.3905 0.123 0.32(2) 0
C96 C2- 2 i 0.916(2) 1.250(2) 0.3318(9) 0.082(9) 0.32(2) 0
H239 H1+ 2 i 0.8525 1.2291 0.3255 0.098 0.32(2) 0
H240 H1+ 2 i 0.939 1.3009 0.3128 0.098 0.32(2) 0
C97 C2- 2 i 0.9686(11) 0.5007(11) 0.4369(4) 0.0644(12) 0.453(8) 0
H241 H1+ 2 i 0.9196 0.5008 0.4551 0.097 0.453(8) 0
H242 H1+ 2 i 1.018 0.5021 0.4592 0.097 0.453(8) 0
H243 H1+ 2 i 0.953 0.4485 0.4159 0.097 0.453(8) 0
C98 C2- 2 i 0.3838(12) 0.4415(9) 0.3504(8) 0.0635(12) 0.411(9) 0
H244 H1+ 2 i 0.3474 0.4603 0.3262 0.076 0.411(9) 0
H245 H1+ 2 i 0.364 0.4491 0.3823 0.076 0.411(9) 0
C99 C2- 2 i 0.3740(12) 0.3496(10) 0.3406(8) 0.0635(12) 0.411(9) 0
H246 H1+ 2 i 0.344 0.3311 0.3088 0.095 0.411(9) 0
H247 H1+ 2 i 0.3404 0.3154 0.3649 0.095 0.411(9) 0
H248 H1+ 2 i 0.4309 0.3416 0.3416 0.095 0.411(9) 0
C100 C2- 2 i 0.8394(8) 0.9457(7) -0.0266(4) 0.125(3) 1 0
H249 H1+ 2 i 0.7905 0.9222 -0.0511 0.15 1 0
H250 H1+ 2 i 0.8643 0.8985 -0.0213 0.15 1 0
C101 C2- 2 i 0.5142(15) 0.3002(10) 0.2207(10) 0.0625(12) 0.331(10) 0
H251 H1+ 2 i 0.5296 0.2808 0.1902 0.094 0.331(10) 0
H252 H1+ 2 i 0.4513 0.2835 0.2208 0.094 0.331(10) 0
H253 H1+ 2 i 0.5375 0.2736 0.2471 0.094 0.331(10) 0
C102 C2- 2 i 0.722(5) 1.148(4) 0.416(3) 0.125(6) 0.188(18) 0
H254 H1+ 2 i 0.7784 1.1901 0.4126 0.187 0.188(18) 0
H255 H1+ 2 i 0.701 1.161 0.4467 0.187 0.188(18) 0
H256 H1+ 2 i 0.6814 1.1502 0.3897 0.187 0.188(18) 0
C103 C2- 2 i 0.732(4) 1.060(3) 0.417(2) 0.078(4) 0.188(18) 0
H257 H1+ 2 i 0.7546 1.0505 0.4496 0.094 0.188(18) 0
H258 H1+ 2 i 0.6745 1.0164 0.4102 0.094 0.188(18) 0
C104 C2- 2 i 0.5504(7) 0.3941(11) 0.2268(11) 0.0625(12) 0.331(10) 0
H259 H1+ 2 i 0.5322 0.4202 0.1981 0.075 0.331(10) 0
H260 H1+ 2 i 0.5268 0.4141 0.2548 0.075 0.331(10) 0
loop_
_atom_site_aniso_label
_atom_site_aniso_type_symbol
_atom_site_aniso_U_11
_atom_site_aniso_U_22
_atom_site_aniso_U_33
_atom_site_aniso_U_12
_atom_site_aniso_U_13
_atom_site_aniso_U_23
C1 C2- 0.071(5) 0.041(4) 0.046(4) 0.014(4) 0.015(4) 0.013(3)
C2 C2- 0.067(5) 0.066(5) 0.059(5) 0.021(4) 0.020(4) 0.013(4)
C3 C2- 0.079(6) 0.078(6) 0.071(6) 0.002(5) 0.025(5) 0.024(5)
C4 C2- 0.076(7) 0.100(8) 0.107(8) -0.015(6) 0.045(6) 0.027(6)
C5 C2- 0.038(4) 0.088(6) 0.076(6) 0.019(4) 0.022(4) 0.030(5)
C6 C2- 0.073(7) 0.141(10) 0.090(7) 0.042(7) 0.039(6) 0.042(7)
C8 C2- 0.103(11) 0.162(15) 0.119(12) -0.005(10) 0.063(10) -0.005(11)
C9 C2- 0.204(14) 0.089(8) 0.076(7) 0.030(9) 0.071(9) 0.012(6)
C10 C2- 0.31(2) 0.138(12) 0.066(8) 0.061(13) 0.074(11) -0.008(8)
C11 C2- 0.053(4) 0.030(4) 0.071(5) 0.006(3) 0.008(4) 0.009(3)
C12 C2- 0.083(6) 0.029(4) 0.079(6) -0.007(4) 0.000(5) 0.005(4)
C13 C2- 0.049(5) 0.161(11) 0.070(6) -0.018(6) -0.016(5) 0.061(7)
C14 C2- 0.069(7) 0.153(12) 0.129(10) -0.034(7) -0.021(7) 0.047(9)
C15 C2- 0.080(6) 0.088(6) 0.076(6) 0.051(5) 0.029(5) 0.032(5)
C16 C2- 0.114(10) 0.117(10) 0.178(13) 0.067(8) 0.057(9) 0.003(9)
C17 C2- 0.094(7) 0.050(5) 0.084(6) -0.002(5) 0.037(5) -0.024(5)
C18 C2- 0.204(14) 0.071(7) 0.129(10) 0.051(8) 0.087(10) 0.005(7)
C19 C2- 0.046(4) 0.048(4) 0.034(4) 0.005(3) -0.012(3) -0.003(3)
C20 C2- 0.102(7) 0.077(6) 0.040(4) 0.038(5) -0.026(4) -0.007(4)
C21 C2- 0.044(4) 0.048(4) 0.047(4) 0.014(3) 0.004(3) 0.015(3)
C22 C2- 0.094(7) 0.061(5) 0.079(6) 0.030(5) -0.032(5) 0.016(5)
C23 C2- 0.146(9) 0.067(6) 0.108(9) 0.025(6) 0.033(7) -0.022(6)
C24 C2- 0.146(9) 0.067(6) 0.108(9) 0.025(6) 0.033(7) -0.022(6)
C25 C2- 0.071(5) 0.061(5) 0.040(4) 0.021(4) -0.011(4) -0.009(4)
C26 C2- 0.098(7) 0.067(6) 0.079(6) -0.011(5) -0.042(5) -0.026(5)
C27 C2- 0.058(5) 0.119(7) 0.048(4) 0.020(5) -0.020(4) 0.009(4)
C28 C2- 0.061(6) 0.135(9) 0.105(8) 0.002(6) -0.048(6) 0.025(7)
C29 C2- 0.064(4) 0.103(5) 0.131(6) 0.046(4) 0.014(4) 0.056(5)
C30 C2- 0.064(4) 0.103(5) 0.131(6) 0.046(4) 0.014(4) 0.056(5)
C31 C2- 0.074(6) 0.034(4) 0.102(7) 0.010(4) 0.000(5) 0.023(4)
C32 C2- 0.102(8) 0.052(6) 0.184(12) 0.050(6) -0.005(8) -0.005(7)
C33 C2- 0.129(7) 0.053(5) 0.097(6) -0.014(5) 0.019(6) -0.017(5)
C34 C2- 0.123(9) 0.055(6) 0.106(8) -0.010(6) 0.000(7) -0.028(6)
C35 C2- 0.039(6) 0.083(7) 0.072(7) -0.003(5) -0.004(5) -0.004(6)
C36 C2- 0.082(9) 0.216(15) 0.071(14) -0.048(10) -0.031(11) -0.011(14)
C37 C2- 0.037(4) 0.082(6) 0.061(5) 0.014(4) -0.005(4) 0.011(4)
C38 C2- 0.051(5) 0.152(10) 0.075(6) 0.035(6) -0.022(5) 0.022(6)
C39 C2- 0.066(6) 0.092(7) 0.134(9) 0.051(6) 0.048(6) 0.044(6)
C40 C2- 0.134(10) 0.124(9) 0.128(10) 0.111(9) 0.016(8) 0.031(7)
C41 C2- 0.063(5) 0.039(4) 0.082(6) 0.024(4) 0.037(4) 0.017(4)
C42 C2- 0.183(12) 0.078(7) 0.138(10) 0.096(8) 0.105(9) 0.060(7)
C43 C2- 0.029(3) 0.063(5) 0.051(4) 0.021(3) -0.004(3) 0.011(3)
C44 C2- 0.039(4) 0.113(7) 0.067(5) 0.039(5) -0.008(4) 0.021(5)
C45 C2- 0.034(8) 0.047(8) 0.111(14) -0.008(6) -0.018(8) -0.020(8)
C46 C2- 0.066(12) 0.074(13) 0.16(2) -0.001(10) 0.017(13) 0.029(13)
C47 C2- 0.027(4) 0.086(6) 0.074(5) 0.027(4) -0.007(4) 0.010(4)
C48 C2- 0.028(4) 0.126(9) 0.105(8) 0.013(5) 0.020(5) 0.002(6)
C49 C2- 0.054(3) 0.071(3) 0.065(3) 0.036(2) 0.021(2) 0.017(2)
C50 C2- 0.054(3) 0.071(3) 0.065(3) 0.036(2) 0.021(2) 0.017(2)
C51 C2- 0.089(8) 0.067(9) 0.098(11) 0.052(6) 0.010(8) -0.003(7)
C52 C2- 0.130(10) 0.165(11) 0.109(11) 0.090(9) 0.018(9) -0.021(9)
C53 C2- 0.074(5) 0.065(5) 0.038(4) 0.027(4) -0.013(4) -0.014(4)
C54 C2- 0.106(8) 0.165(10) 0.029(4) 0.079(8) 0.002(5) -0.007(5)
C55 C2- 0.063(6) 0.110(7) 0.064(6) 0.020(5) -0.013(4) 0.032(5)
C56 C2- 0.063(6) 0.110(7) 0.064(6) 0.020(5) -0.013(4) 0.032(5)
C57 C2- 0.058(3) 0.064(3) 0.072(3) 0.022(2) -0.003(2) 0.031(2)
C58 C2- 0.058(3) 0.064(3) 0.072(3) 0.022(2) -0.003(2) 0.031(2)
C59 C2- 0.042(9) 0.044(9) 0.053(10) 0.006(7) -0.003(8) 0.002(8)
C60 C2- 0.078(14) 0.037(10) 0.087(15) 0.018(9) 0.002(11) 0.034(10)
C61 C2- 0.050(2) 0.031(2) 0.095(3) -0.0029(18) -0.002(2) 0.002(2)
C62 C2- 0.050(2) 0.031(2) 0.095(3) -0.0029(18) -0.002(2) 0.002(2)
C63 C2- 0.036(2) 0.055(3) 0.090(3) -0.0011(19) 0.009(2) 0.026(2)
C64 C2- 0.036(2) 0.055(3) 0.090(3) -0.0011(19) 0.009(2) 0.026(2)
C65 C2- 0.036(4) 0.074(5) 0.081(6) 0.018(4) 0.012(4) 0.028(5)
C66 C2- 0.045(5) 0.105(7) 0.114(8) 0.026(5) 0.043(5) 0.051(6)
C67 C2- 0.107(9) 0.152(11) 0.084(8) 0.074(8) 0.013(7) 0.031(8)
C68 C2- 0.150(11) 0.163(12) 0.061(6) 0.088(10) 0.029(7) 0.028(7)
C69 C2- 0.177(8) 0.093(8) 0.084(7) 0.031(7) -0.028(7) 0.034(6)
C70 C2- 0.152(13) 0.089(12) 0.094(12) 0.031(11) -0.028(11) 0.031(10)
C71 C2- 0.047(8) 0.091(12) 0.064(10) -0.006(8) -0.009(7) 0.042(9)
C72 C2- 0.105(15) 0.115(16) 0.069(12) -0.003(12) -0.009(10) 0.067(11)
C73 C2- 0.0374(16) 0.0525(18) 0.079(2) 0.0018(13) 0.0077(15) 0.0054(16)
C74 C2- 0.0374(16) 0.0525(18) 0.079(2) 0.0018(13) 0.0077(15) 0.0054(16)
C75 C2- 0.0374(16) 0.0525(18) 0.079(2) 0.0018(13) 0.0077(15) 0.0054(16)
C76 C2- 0.0374(16) 0.0525(18) 0.079(2) 0.0018(13) 0.0077(15) 0.0054(16)
O1 O2- 0.026(2) 0.043(2) 0.045(3) 0.0124(19) 0.0010(19) 0.007(2)
O2 O2- 0.0223(19) 0.031(2) 0.027(2) 0.0088(17) 0.0020(16) 0.0054(16)
O3 O2- 0.022(2) 0.028(2) 0.034(2) 0.0034(16) 0.0032(17) 0.0100(17)
O4 O2- 0.0174(19) 0.030(2) 0.037(2) 0.0047(16) 0.0053(17) 0.0093(17)
O5 O2- 0.0195(18) 0.0225(19) 0.026(2) 0.0041(15) -0.0018(15) 0.0023(15)
O6 O2- 0.0185(18) 0.0224(19) 0.025(2) 0.0046(15) 0.0011(15) 0.0043(15)
O7 O2- 0.0192(18) 0.0204(18) 0.029(2) 0.0035(15) -0.0031(16) 0.0016(15)
O8 O2- 0.0203(19) 0.0232(19) 0.030(2) 0.0024(16) -0.0009(16) 0.0008(16)
O9 O2- 0.029(2) 0.0224(19) 0.035(2) 0.0079(17) 0.0032(17) -0.0007(17)
O10 O2- 0.023(2) 0.031(2) 0.026(2) 0.0039(17) -0.0022(16) 0.0031(16)
O11 O2- 0.030(2) 0.031(2) 0.032(2) 0.0044(18) 0.0041(18) 0.0001(17)
O12 O2- 0.028(2) 0.034(2) 0.032(2) 0.0060(18) -0.0008(17) 0.0018(18)
O13 O2- 0.025(2) 0.031(2) 0.035(2) 0.0061(17) 0.0068(17) 0.0093(17)
O14 O2- 0.035(2) 0.031(2) 0.036(2) 0.0064(19) 0.0038(19) 0.0088(18)
O15 O2- 0.036(2) 0.036(2) 0.036(2) 0.0076(19) 0.0054(19) 0.0018(19)
O16 O2- 0.033(2) 0.032(2) 0.034(2) 0.0047(18) 0.0014(18) 0.0007(18)
O17 O2- 0.028(2) 0.030(2) 0.028(2) 0.0128(17) 0.0005(17) 0.0074(17)
O18 O2- 0.030(2) 0.023(2) 0.030(2) 0.0055(17) 0.0020(17) 0.0029(16)
O19 O2- 0.0157(18) 0.035(2) 0.032(2) 0.0046(16) 0.0003(16) 0.0077(17)
O20 O2- 0.023(2) 0.036(2) 0.035(2) 0.0112(18) 0.0030(17) 0.0082(18)
O21 O2- 0.038(2) 0.025(2) 0.039(2) 0.0008(18) 0.0005(19) -0.0054(18)
O22 O2- 0.030(2) 0.035(2) 0.032(2) 0.0006(18) -0.0088(18) -0.0032(18)
O23 O2- 0.0200(19) 0.035(2) 0.033(2) 0.0103(17) 0.0004(16) 0.0085(17)
O24 O2- 0.030(2) 0.027(2) 0.027(2) 0.0074(17) 0.0011(17) 0.0000(16)
O25 O2- 0.023(2) 0.030(2) 0.027(2) 0.0043(17) -0.0022(16) 0.0037(16)
O26 O2- 0.027(2) 0.026(2) 0.042(2) 0.0099(17) 0.0033(18) 0.0093(18)
O27 O2- 0.030(2) 0.023(2) 0.043(2) 0.0020(17) 0.0008(19) 0.0036(18)
O28 O2- 0.021(2) 0.031(2) 0.036(2) 0.0004(17) -0.0056(17) 0.0049(18)
O29 O2- 0.027(2) 0.031(2) 0.033(2) 0.0120(17) 0.0057(17) 0.0053(17)
O30 O2- 0.0203(19) 0.036(2) 0.032(2) 0.0089(17) 0.0012(16) 0.0094(17)
O31 O2- 0.023(2) 0.030(2) 0.043(2) 0.0000(17) 0.0014(18) 0.0073(18)
O32 O2- 0.024(2) 0.045(3) 0.053(3) 0.0050(19) 0.007(2) 0.020(2)
O33 O2- 0.023(2) 0.053(3) 0.045(3) 0.014(2) 0.0110(19) 0.016(2)
O34 O2- 0.039(2) 0.052(3) 0.032(2) 0.016(2) 0.0106(19) 0.009(2)
O35 O2- 0.034(2) 0.050(3) 0.031(2) 0.014(2) 0.0056(18) 0.016(2)
O36 O2- 0.029(2) 0.045(3) 0.043(3) 0.0086(19) 0.0059(19) 0.019(2)
O37 O2- 0.033(2) 0.039(2) 0.056(3) 0.006(2) 0.010(2) 0.021(2)
O38 O2- 0.040(2) 0.026(2) 0.035(2) 0.0104(18) 0.0045(19) 0.0093(17)
O39 O2- 0.028(2) 0.036(2) 0.048(3) -0.0050(19) 0.0047(19) 0.013(2)
O40 O2- 0.020(2) 0.054(3) 0.048(3) 0.012(2) 0.0091(19) 0.013(2)
O41 O2- 0.049(3) 0.049(3) 0.047(3) 0.019(2) 0.016(2) 0.003(2)
O42 O2- 0.057(3) 0.044(3) 0.032(2) 0.003(2) 0.002(2) -0.009(2)
O43 O2- 0.054(3) 0.045(3) 0.025(2) 0.012(2) 0.000(2) 0.0036(19)
O44 O2- 0.031(2) 0.024(2) 0.042(2) -0.0018(17) -0.0014(19) 0.0033(18)
O45 O2- 0.018(2) 0.036(2) 0.041(2) -0.0036(17) -0.0063(17) 0.0043(19)
O46 O2- 0.035(2) 0.040(2) 0.052(3) 0.019(2) 0.012(2) 0.005(2)
O47 O2- 0.051(3) 0.029(2) 0.049(3) 0.011(2) 0.010(2) -0.007(2)
O48 O2- 0.034(2) 0.043(2) 0.030(2) 0.003(2) -0.0100(18) 0.0018(19)
O49 O2- 0.033(2) 0.036(2) 0.033(2) 0.0104(19) -0.0043(18) 0.0105(18)
O50 O2- 0.054(3) 0.031(2) 0.046(3) 0.010(2) -0.001(2) -0.012(2)
O51 O2- 0.037(2) 0.032(2) 0.031(2) 0.0032(19) -0.0112(18) -0.0062(18)
O52 O2- 0.026(2) 0.058(3) 0.036(2) 0.003(2) -0.0116(19) 0.003(2)
O53 O2- 0.040(3) 0.044(3) 0.065(3) 0.025(2) 0.008(2) 0.021(2)
O54 O2- 0.044(3) 0.023(2) 0.061(3) 0.0129(19) 0.008(2) 0.008(2)
O55 O2- 0.061(3) 0.024(2) 0.065(3) 0.001(2) 0.006(3) -0.007(2)
O56 O2- 0.029(2) 0.055(3) 0.056(3) -0.009(2) -0.018(2) 0.008(2)
O57 O2- 0.022(2) 0.046(3) 0.047(3) 0.0085(19) -0.0078(19) 0.010(2)
O58 O2- 0.034(2) 0.053(3) 0.051(3) 0.022(2) 0.004(2) 0.016(2)
O59 O2- 0.043(2) 0.030(2) 0.045(3) 0.0168(19) 0.014(2) 0.0110(19)
O60 O2- 0.024(2) 0.044(2) 0.038(2) 0.0121(19) -0.0016(18) 0.0111(19)
O61 O2- 0.041(3) 0.033(2) 0.059(3) -0.010(2) -0.006(2) -0.005(2)
O62 O2- 0.023(2) 0.045(3) 0.071(3) -0.008(2) -0.006(2) 0.016(2)
O63 O2- 0.0148(19) 0.050(3) 0.054(3) 0.0105(19) 0.0010(19) 0.017(2)
O64 O2- 0.054(3) 0.071(3) 0.065(3) 0.036(2) 0.021(2) 0.017(2)
O65 O2- 0.055(3) 0.044(3) 0.038(3) 0.022(2) 0.008(2) -0.002(2)
O66 O2- 0.040(2) 0.040(2) 0.028(2) 0.012(2) 0.0002(18) -0.0015(18)
O67 O2- 0.040(3) 0.054(3) 0.032(2) 0.015(2) -0.0055(19) 0.010(2)
O68 O2- 0.058(3) 0.064(3) 0.072(3) 0.022(2) -0.003(2) 0.031(2)
O69 O2- 0.045(3) 0.028(2) 0.059(3) 0.009(2) -0.004(2) 0.014(2)
O70 O2- 0.050(2) 0.031(2) 0.095(3) -0.0029(18) -0.002(2) 0.002(2)
O71 O2- 0.044(3) 0.069(3) 0.070(4) -0.002(3) -0.001(3) 0.038(3)
O72 O2- 0.036(2) 0.055(3) 0.090(3) -0.0011(19) 0.009(2) 0.026(2)
O73 O2- 0.027(2) 0.060(3) 0.055(3) 0.012(2) 0.016(2) 0.022(2)
O74 O2- 0.040(3) 0.069(3) 0.051(3) 0.026(2) 0.022(2) 0.016(2)
O75 O2- 0.044(3) 0.064(3) 0.037(3) 0.021(2) 0.015(2) 0.015(2)
O76 O2- 0.051(3) 0.068(3) 0.040(3) 0.023(3) 0.013(2) 0.029(2)
O77 O2- 0.0374(16) 0.0525(18) 0.079(2) 0.0018(13) 0.0077(15) 0.0054(16)
O78 O2- 0.0374(16) 0.0525(18) 0.079(2) 0.0018(13) 0.0077(15) 0.0054(16)
O79 O2- 0.0374(16) 0.0525(18) 0.079(2) 0.0018(13) 0.0077(15) 0.0054(16)
Na1 Na1+ 0.0455(15) 0.0586(17) 0.0437(15) 0.0247(13) 0.0082(12) 0.0127(13)
Ti1 Ti4+ 0.0241(5) 0.0337(6) 0.0382(6) 0.0076(5) 0.0028(5) 0.0089(5)
Ti2 Ti4+ 0.0170(5) 0.0248(5) 0.0293(5) 0.0037(4) -0.0026(4) 0.0032(4)
Ti3 Ti4+ 0.0185(5) 0.0225(5) 0.0245(5) 0.0039(4) -0.0022(4) 0.0014(4)
Ti4 Ti4+ 0.0206(5) 0.0199(5) 0.0327(6) 0.0044(4) 0.0004(4) 0.0027(4)
Ti5 Ti4+ 0.0264(5) 0.0266(5) 0.0300(6) 0.0110(4) 0.0023(4) 0.0041(4)
Ti6 Ti4+ 0.0191(5) 0.0298(5) 0.0314(6) 0.0068(4) -0.0006(4) 0.0075(4)
Ti7 Ti4+ 0.0260(6) 0.0240(5) 0.0426(7) -0.0030(4) -0.0036(5) -0.0005(5)
Ti8 Ti4+ 0.0257(5) 0.0220(5) 0.0285(6) 0.0052(4) 0.0000(4) 0.0035(4)
Ti9 Ti4+ 0.0184(5) 0.0308(6) 0.0356(6) 0.0060(4) 0.0034(4) 0.0064(5)
Ti10 Ti4+ 0.0366(6) 0.0301(6) 0.0302(6) 0.0023(5) -0.0025(5) -0.0060(5)
Ti11 Ti4+ 0.0204(5) 0.0258(5) 0.0351(6) -0.0014(4) 0.0002(4) 0.0054(4)
Ti12 Ti4+ 0.0360(6) 0.0295(6) 0.0392(6) 0.0108(5) 0.0075(5) -0.0008(5)
Ti13 Ti4+ 0.0304(6) 0.0329(6) 0.0261(6) 0.0050(5) -0.0050(4) 0.0033(4)
Ti14 Ti4+ 0.0332(6) 0.0234(5) 0.0308(6) 0.0032(4) -0.0024(5) -0.0034(4)
Ti15 Ti4+ 0.0209(5) 0.0322(6) 0.0307(6) 0.0004(4) -0.0067(4) 0.0015(5)
Ti16 Ti4+ 0.0314(6) 0.0294(6) 0.0484(7) 0.0149(5) 0.0066(5) 0.0077(5)
Ti17 Ti4+ 0.0436(7) 0.0206(5) 0.0501(7) 0.0068(5) 0.0043(6) -0.0028(5)
Ti18 Ti4+ 0.0245(6) 0.0422(7) 0.0357(6) -0.0007(5) -0.0097(5) 0.0036(5)
Ti19 Ti4+ 0.0237(5) 0.0375(6) 0.0366(6) 0.0124(5) -0.0029(5) 0.0108(5)
Ti20 Ti4+ 0.0341(6) 0.0355(6) 0.0278(6) 0.0133(5) 0.0046(5) 0.0028(5)
Ti21 Ti4+ 0.0282(6) 0.0387(6) 0.0255(6) 0.0087(5) -0.0002(4) 0.0070(5)
Ti22 Ti4+ 0.0298(6) 0.0313(6) 0.0467(7) 0.0081(5) 0.0010(5) 0.0140(5)
Ti23 Ti4+ 0.0292(6) 0.0242(6) 0.0618(8) 0.0009(5) 0.0022(5) 0.0125(5)
Ti24 Ti4+ 0.0175(5) 0.0373(6) 0.0472(7) 0.0008(5) -0.0014(5) 0.0110(5)
Ti25 Ti4+ 0.0232(5) 0.0409(6) 0.0419(7) 0.0138(5) 0.0061(5) 0.0119(5)
Ti26 Ti4+ 0.0324(6) 0.0535(7) 0.0408(7) 0.0179(6) 0.0151(5) 0.0140(6)
Ti27 Ti4+ 0.0347(6) 0.0507(7) 0.0359(6) 0.0151(6) 0.0112(5) 0.0201(5)
Ti28 Ti4+ 0.0250(6) 0.0431(7) 0.0501(7) 0.0033(5) 0.0110(5) 0.0199(6)
Ti29 Ti4+ 0.0374(16) 0.0525(18) 0.079(2) 0.0018(13) 0.0077(15) 0.0054(16)
O80 O2- 0.032(7) 0.042(7) 0.027(7) -0.010(6) 0.014(6) 0.012(6)
C77 C2- 0.114(9) 0.114(9) 0.121(9) 0.042(7) 0.063(8) -0.013(7)
C78 C2- 0.165(12) 0.094(8) 0.158(12) 0.062(9) 0.106(10) 0.024(8)
C79 C2- 0.063(6) 0.110(7) 0.064(6) 0.020(5) -0.013(4) 0.032(5)
C80 C2- 0.063(6) 0.110(7) 0.064(6) 0.020(5) -0.013(4) 0.032(5)
C81 C2- 0.144(8) 0.116(7) 0.095(6) 0.004(6) 0.031(6) 0.014(5)
C84 C2- 0.135(14) 0.060(7) 0.057(8) 0.041(7) 0.045(8) 0.013(5)
C85 C2- 0.177(8) 0.093(8) 0.084(7) 0.031(7) -0.028(7) 0.034(6)
C87 C2- 0.131(10) 0.086(10) 0.081(9) 0.042(8) -0.036(8) 0.041(8)
C88 C2- 0.039(6) 0.083(7) 0.072(7) -0.003(5) -0.004(5) -0.004(6)
C89 C2- 0.082(9) 0.216(15) 0.071(14) -0.048(10) -0.031(11) -0.011(14)
C90 C2- 0.125(10) 0.096(8) 0.088(8) -0.070(7) -0.001(7) -0.040(6)
C91 C2- 0.071(6) 0.065(5) 0.066(6) -0.025(5) -0.008(5) -0.026(5)
C92 C2- 0.054(3) 0.071(3) 0.065(3) 0.036(2) 0.021(2) 0.017(2)
C93 C2- 0.054(3) 0.071(3) 0.065(3) 0.036(2) 0.021(2) 0.017(2)
C94 C2- 0.058(3) 0.064(3) 0.072(3) 0.022(2) -0.003(2) 0.031(2)
C95 C2- 0.079(11) 0.084(12) 0.082(11) 0.023(8) 0.015(8) -0.023(8)
C96 C2- 0.079(11) 0.084(12) 0.082(11) 0.023(8) 0.015(8) -0.023(8)
C97 C2- 0.058(3) 0.064(3) 0.072(3) 0.022(2) -0.003(2) 0.031(2)
C98 C2- 0.036(2) 0.055(3) 0.090(3) -0.0011(19) 0.009(2) 0.026(2)
C99 C2- 0.036(2) 0.055(3) 0.090(3) -0.0011(19) 0.009(2) 0.026(2)
C100 C2- 0.144(8) 0.116(7) 0.095(6) 0.004(6) 0.031(6) 0.014(5)
C101 C2- 0.050(2) 0.031(2) 0.095(3) -0.0029(18) -0.002(2) 0.002(2)
C102 C2- 0.130(10) 0.165(11) 0.109(11) 0.090(9) 0.018(9) -0.021(9)
C103 C2- 0.089(8) 0.067(9) 0.098(11) 0.052(6) 0.010(8) -0.003(7)
C104 C2- 0.050(2) 0.031(2) 0.095(3) -0.0029(18) -0.002(2) 0.002(2)
#End of TTdata_251434-ICSD