
#(C) 2019 by FIZ Karlsruhe - Leibniz Institute for Information Infrastructure.  All rights reserved.
data_251522-ICSD
_database_code_ICSD 251522
_audit_creation_date 2015-08-01
_chemical_name_systematic 'Sodium tris(formato)-manganate(II)'
_chemical_formula_structural 'Na (Mn (H C O O)3)'
_chemical_formula_sum 'C3 H3 Mn1 Na1 O6'
_chemical_name_structure_type Na(Mn(HCOO)3)
_exptl_crystal_density_diffrn 1.86
_cell_measurement_temperature 100.
_publ_section_title

;
Alkali metal ion templated transition metal formate framework materials:
synthesis, crystal structures, ion migration, and magnetism
;
loop_
_citation_id
_citation_journal_full
_citation_year
_citation_journal_volume
_citation_page_first
_citation_page_last
_citation_journal_id_ASTM
primary 'Inorganic Chemistry' 2014 53 10178 10188 INOCAJ
loop_
_publ_author_name
'Eikeland, Espen'
'Lock, Nina'
'Filsoe, Mette'
'Stingaciu, Marian'
'Shen, Yanbin'
'Overgaard, Jacob'
'Iversen, Bo Brummerstedt'
_cell_length_a 9.1286(4)
_cell_length_b 9.1286(4)
_cell_length_c 9.1286(4)
_cell_angle_alpha 90.
_cell_angle_beta 90.
_cell_angle_gamma 90.
_cell_volume 760.69
_cell_formula_units_Z 4
_symmetry_space_group_name_H-M 'P 21 3'
_symmetry_Int_Tables_number 198
_refine_ls_R_factor_all 0.0291
loop_
_symmetry_equiv_pos_site_id
_symmetry_equiv_pos_as_xyz
1 '-z+1/2, -x, y+1/2'
2 '-y+1/2, -z, x+1/2'
3 '-x+1/2, -y, z+1/2'
4 '-z, x+1/2, -y+1/2'
5 '-y, z+1/2, -x+1/2'
6 '-x, y+1/2, -z+1/2'
7 'z+1/2, -x+1/2, -y'
8 'y+1/2, -z+1/2, -x'
9 'x+1/2, -y+1/2, -z'
10 'z, x, y'
11 'y, z, x'
12 'x, y, z'
loop_
_atom_type_symbol
_atom_type_oxidation_number
O2- -2
C2+ 2
H1+ 1
Mn2+ 2
Na1+ 1
loop_
_atom_site_label
_atom_site_type_symbol
_atom_site_symmetry_multiplicity
_atom_site_Wyckoff_symbol
_atom_site_fract_x
_atom_site_fract_y
_atom_site_fract_z
_atom_site_B_iso_or_equiv
_atom_site_occupancy
_atom_site_attached_hydrogens
O1 O2- 12 b 0.40179(12) 0.68208(12) 0.53502(12) 0.0118(2) 1 0
O2 O2- 12 b 0.17171(13) 0.66104(13) 0.45583(14) 0.0131(2) 1 0
C1 C2+ 12 b 0.28600(17) 0.6136(2) 0.51456(19) 0.0135(3) 1 0
H1 H1+ 12 b 0.2841 0.5147 0.5469 0.016 1 0
Mn1 Mn2+ 4 a 0.61679(3) 0.61679(3) 0.61679(3) 0.00773(9) 1 0
Na1 Na1+ 4 a 0.43678(7) 0.93678(7) 0.56322(7) 0.0085(2) 1 0
loop_
_atom_site_aniso_label
_atom_site_aniso_type_symbol
_atom_site_aniso_U_11
_atom_site_aniso_U_22
_atom_site_aniso_U_33
_atom_site_aniso_U_12
_atom_site_aniso_U_13
_atom_site_aniso_U_23
O1 O2- 0.0088(5) 0.0114(5) 0.0152(5) -0.0005(4) -0.0019(4) 0.0006(4)
O2 O2- 0.0108(5) 0.0107(5) 0.0178(6) 0.0006(4) -0.0050(5) 0.0009(4)
C1 C2+ 0.0119(7) 0.0091(6) 0.0195(8) 0.0021(6) -0.0016(6) 0.0024(7)
Mn1 Mn2+ 0.00773(9) 0.00773(9) 0.00773(9) 0.00047(9) 0.00047(9) 0.00047(9)
Na1 Na1+ 0.0085(2) 0.0085(2) 0.0085(2) 0.0008(2) -0.0008(2) -0.0008(2)
#End of TTdata_251522-ICSD