
#(C) 2019 by FIZ Karlsruhe - Leibniz Institute for Information Infrastructure.  All rights reserved.
data_251519-ICSD
_database_code_ICSD 251519
_audit_creation_date 2015-08-01
_chemical_name_systematic 'Disodium octakis(formato)-tricuprate(II)'
_chemical_formula_structural 'Na2 (Cu3 (H C O O)8)'
_chemical_formula_sum 'C8 H8 Cu3 Na2 O16'
_exptl_crystal_density_diffrn 2.3
_cell_measurement_temperature 200.
_publ_section_title

;
Alkali metal ion templated transition metal formate framework materials:
synthesis, crystal structures, ion migration, and magnetism
;
loop_
_citation_id
_citation_journal_full
_citation_year
_citation_journal_volume
_citation_page_first
_citation_page_last
_citation_journal_id_ASTM
primary 'Inorganic Chemistry' 2014 53 10178 10188 INOCAJ
loop_
_publ_author_name
'Eikeland, Espen'
'Lock, Nina'
'Filsoe, Mette'
'Stingaciu, Marian'
'Shen, Yanbin'
'Overgaard, Jacob'
'Iversen, Bo Brummerstedt'
_cell_length_a 7.6400(6)
_cell_length_b 7.7371(5)
_cell_length_c 8.7697(7)
_cell_angle_alpha 113.158(7)
_cell_angle_beta 108.455(7)
_cell_angle_gamma 97.772(6)
_cell_volume 431.59
_cell_formula_units_Z 1
_symmetry_space_group_name_H-M 'P -1'
_symmetry_Int_Tables_number 2
_refine_ls_R_factor_all 0.0431
loop_
_symmetry_equiv_pos_site_id
_symmetry_equiv_pos_as_xyz
1 '-x, -y, -z'
2 'x, y, z'
loop_
_atom_type_symbol
_atom_type_oxidation_number
O2- -2
C2+ 2
O2- -2
C2+ 2
H1+ 1
O2- -2
C2+ 2
H1+ 1
C2+ 2
H1+ 1
O2- -2
Na1+ 1
Cu2+ 2
H1+ 1
loop_
_atom_site_label
_atom_site_type_symbol
_atom_site_symmetry_multiplicity
_atom_site_Wyckoff_symbol
_atom_site_fract_x
_atom_site_fract_y
_atom_site_fract_z
_atom_site_B_iso_or_equiv
_atom_site_occupancy
_atom_site_attached_hydrogens
O1 O2- 2 i 0.2145(3) -0.0119(4) 0.1832(3) 0.0238(5) 1 0
O2 O2- 2 i 0.9088(3) 0.2119(4) 0.2390(3) 0.0236(5) 1 0
C1 C2+ 2 i 0.2642(5) -0.1638(5) 0.1741(5) 0.0251(8) 1 0
O3 O2- 2 i 0.2108(3) 0.3365(4) 0.5688(3) 0.0256(5) 1 0
O4 O2- 2 i 0.6699(3) 0.5665(3) 0.6882(3) 0.0204(5) 1 0
C2 C2+ 2 i 0.7579(5) 0.1713(5) 0.2607(5) 0.0233(7) 1 0
H1 H1+ 2 i 0.6686 0.0491 0.1756 0.028 1 0
O5 O2- 2 i 0.7128(3) 0.2761(4) 0.3838(3) 0.0253(6) 1 0
O6 O2- 2 i 1.0162(4) 0.4060(4) 0.7158(4) 0.0290(6) 1 0
O7 O2- 2 i 0.4154(4) -0.1601(4) 0.2826(4) 0.0336(7) 1 0
C3 C2+ 2 i 0.1441(5) 0.3324(5) 0.6817(5) 0.0249(7) 1 0
H2 H1+ 2 i 0.1951 0.2678 0.7469 0.03 1 0
C4 C2+ 2 i 0.6893(5) 0.6352(5) 0.8503(5) 0.0210(7) 1 0
H3 H1+ 2 i 0.5959 0.5691 0.8715 0.025 1 0
O8 O2- 2 i 0.8172(3) 0.7802(4) 0.9862(3) 0.0229(5) 1 0
Na1 Na1+ 2 i 0.45646(19) 0.2244(2) 0.47682(19) 0.0217(3) 1 0
Cu1 Cu2+ 1 a 0. 0. 0. 0.01813(15) 1 0
Cu2 Cu2+ 2 i 0.88545(5) 0.53829(6) 0.58479(5) 0.01784(13) 1 0
H4 H1+ 2 i 0.174(6) -0.286(7) 0.080(6) 0.038(13) 1 0
loop_
_atom_site_aniso_label
_atom_site_aniso_type_symbol
_atom_site_aniso_U_11
_atom_site_aniso_U_22
_atom_site_aniso_U_33
_atom_site_aniso_U_12
_atom_site_aniso_U_13
_atom_site_aniso_U_23
O1 O2- 0.0225(12) 0.0187(12) 0.0172(12) 0.0047(9) -0.0036(9) 0.0056(10)
O2 O2- 0.0195(11) 0.0206(12) 0.0163(11) 0.0024(9) 0.0040(9) -0.0012(10)
C1 C2+ 0.0241(16) 0.0219(17) 0.0198(17) 0.0032(14) 0.0010(14) 0.0080(15)
O3 O2- 0.0218(12) 0.0322(14) 0.0209(13) 0.0087(10) 0.0057(10) 0.0126(11)
O4 O2- 0.0169(10) 0.0209(12) 0.0153(11) 0.0037(9) 0.0047(9) 0.0030(10)
C2 C2+ 0.0200(15) 0.0154(16) 0.0174(16) -0.0004(12) 0.0001(13) -0.0009(13)
O5 O2- 0.0209(11) 0.0179(12) 0.0221(13) -0.0008(9) 0.0069(10) -0.0012(10)
O6 O2- 0.0307(14) 0.0359(15) 0.0286(14) 0.0150(12) 0.0137(12) 0.0197(13)
O7 O2- 0.0260(13) 0.0315(15) 0.0361(16) 0.0076(11) 0.0003(12) 0.0189(13)
C3 C2+ 0.0238(16) 0.0266(18) 0.0222(18) 0.0080(14) 0.0049(14) 0.0127(15)
C4 C2+ 0.0187(15) 0.0182(16) 0.0201(17) 0.0030(12) 0.0053(13) 0.0062(14)
O8 O2- 0.0233(12) 0.0205(12) 0.0130(11) -0.0001(9) 0.0016(9) 0.0033(10)
Na1 Na1+ 0.0171(6) 0.0212(7) 0.0178(7) 0.0033(5) 0.0027(5) 0.0048(6)
Cu1 Cu2+ 0.0158(3) 0.0157(3) 0.0131(3) 0.0020(2) -0.0008(2) 0.0036(2)
Cu2 Cu2+ 0.0144(2) 0.0175(2) 0.0145(2) 0.00288(15) 0.00295(15) 0.00366(17)
#End of TTdata_251519-ICSD