
#(C) 2019 by FIZ Karlsruhe - Leibniz Institute for Information Infrastructure.  All rights reserved.
data_254028-ICSD
_database_code_ICSD 254028
_audit_creation_date 2018-02-01
_chemical_name_systematic
'Diaqua (tris-acetato) (mue2-acetato) dinatrium copper(II) monohydrate'
_chemical_formula_structural 'C8 H18 Cu Na2 O11'
_chemical_formula_sum 'C8 H18 Cu1 Na2 O11'
_exptl_crystal_density_diffrn 1.69
_cell_measurement_temperature 200.
_publ_section_title

;
Crystal structure of the first characterized polymeric copper and sodium
complex diaqua-(tris-acetato-kappaO,O')(mu2-acetato-kappaO'')dinatrium
copper(II) monohydrate, C8H18CuNa2O11
;
loop_
_citation_id
_citation_journal_full
_citation_year
_citation_journal_volume
_citation_page_first
_citation_page_last
_citation_journal_id_ASTM
primary 'Zeitschrift fuer Kristallographie - New Crystal Structures' 2017 232
521 523 ZKNSFT
loop_
_publ_author_name
'Ali, Syed Saeed'
'Amer, Alanazi'
'Al-Obaid, Abdul-Rahman M.'
'Hosten, Eric C.'
'Betz, Richard'
'Al-Salem, Huda Salem'
'Bari, Ahmed'
_cell_length_a 9.9625(5)
_cell_length_b 14.0145(7)
_cell_length_c 11.3376(6)
_cell_angle_alpha 90
_cell_angle_beta 97.602(2)
_cell_angle_gamma 90
_cell_volume 1569.03
_cell_formula_units_Z 4
_symmetry_space_group_name_H-M 'P 1 21/n 1'
_symmetry_Int_Tables_number 14
_refine_ls_R_factor_all 0.0178
loop_
_symmetry_equiv_pos_site_id
_symmetry_equiv_pos_as_xyz
1 '-x+1/2, y+1/2, -z+1/2'
2 '-x, -y, -z'
3 'x+1/2, -y+1/2, z+1/2'
4 'x, y, z'
loop_
_atom_type_symbol
_atom_type_oxidation_number
Cu2+ 2
Na1+ 1
O2- -2
C3+ 3
C3- -3
H1+ 1
C3+ 3
C3- -3
H1+ 1
C3+ 3
C3- -3
H1+ 1
C3+ 3
C3- -3
H1+ 1
loop_
_atom_site_label
_atom_site_type_symbol
_atom_site_symmetry_multiplicity
_atom_site_Wyckoff_symbol
_atom_site_fract_x
_atom_site_fract_y
_atom_site_fract_z
_atom_site_B_iso_or_equiv
_atom_site_occupancy
_atom_site_attached_hydrogens
Cu1 Cu2+ 4 e 0.62979(2) 0.30982(2) 0.58404(2) 0.01601(5) 1 0
Na1 Na1+ 4 e 0.74790(4) 0.15630(3) 0.78110(4) 0.02386(10) 1 0
Na2 Na1+ 4 e 0.84320(4) 0.47470(3) 0.52589(4) 0.01975(9) 1 0
O1 O2- 4 e 0.69319(9) 0.14333(6) 0.97858(8) 0.02546(17) 1 0
O2 O2- 4 e 0.94525(8) 0.49504(6) 0.35076(7) 0.02241(16) 1 0
O3 O2- 4 e 0.91756(12) 0.64184(8) 0.17966(10) 0.0406(2) 1 0
O4 O2- 4 e 0.91637(9) 0.30969(6) 0.53285(8) 0.02725(19) 1 0
O5 O2- 4 e 0.74826(9) 0.20532(6) 0.54116(8) 0.02674(18) 1 0
O6 O2- 4 e 0.75407(8) 0.48535(6) 0.71032(7) 0.02392(17) 1 0
O7 O2- 4 e 0.71298(8) 0.33388(6) 0.74973(7) 0.02405(17) 1 0
O8 O2- 4 e 0.63107(8) 0.40883(6) 0.46384(7) 0.02380(17) 1 0
O9 O2- 4 e 0.48033(8) 0.33742(6) 0.32996(8) 0.02654(18) 1 0
O10 O2- 4 e 0.43975(8) 0.27975(6) 0.60135(7) 0.02322(17) 1 0
O11 O2- 4 e 0.51953(8) 0.15852(6) 0.71535(8) 0.02670(18) 1 0
C1 C3+ 4 e 0.86739(11) 0.22910(8) 0.51831(10) 0.0213(2) 1 0
C2 C3- 4 e 0.94723(14) 0.15036(10) 0.47001(14) 0.0354(3) 1 0
H1 H1+ 4 e 0.8856 0.1085 0.4191 0.053 1 0
H2 H1+ 4 e 0.9944 0.1133 0.5362 0.053 1 0
H3 H1+ 4 e 1.0136 0.178 0.4234 0.053 1 0
C3 C3+ 4 e 0.75449(10) 0.41799(8) 0.78056(10) 0.0196(2) 1 0
C4 C3- 4 e 0.80233(14) 0.43330(11) 0.91107(11) 0.0338(3) 1 0
H4 H1+ 4 e 0.8699 0.4845 0.9204 0.051 1 0
H5 H1+ 4 e 0.8429 0.3743 0.9457 0.051 1 0
H6 H1+ 4 e 0.7252 0.4511 0.9519 0.051 1 0
C5 C3+ 4 e 0.55643(10) 0.40478(8) 0.36274(10) 0.0188(2) 1 0
C6 C3- 4 e 0.56903(12) 0.48937(9) 0.28313(11) 0.0257(2) 1 0
H7 H1+ 4 e 0.5128 0.4792 0.2065 0.038 1 0
H8 H1+ 4 e 0.6638 0.497 0.2703 0.038 1 0
H9 H1+ 4 e 0.5387 0.547 0.3208 0.038 1 0
C7 C3+ 4 e 0.42670(11) 0.21166(8) 0.67322(9) 0.0182(2) 1 0
C8 C3- 4 e 0.28600(12) 0.19667(10) 0.70671(13) 0.0324(3) 1 0
H10 H1+ 4 e 0.24 0.2584 0.7085 0.049 1 0
H11 H1+ 4 e 0.2927 0.1669 0.7855 0.049 1 0
H12 H1+ 4 e 0.2342 0.1551 0.6479 0.049 1 0
H13 H1+ 4 e 0.7588(13) 0.1666(13) 1.0241(15) 0.052(5) 1 0
H14 H1+ 4 e 0.6222(12) 0.1645(13) 1.0018(16) 0.054(6) 1 0
H15 H1+ 4 e 0.9360(17) 0.5415(9) 0.3036(13) 0.045(5) 1 0
H16 H1+ 4 e 0.9677(18) 0.4484(9) 0.3118(13) 0.045(5) 1 0
H17 H1+ 4 e 0.961(2) 0.6932(10) 0.186(2) 0.075(8) 1 0
H18 H1+ 4 e 0.8723(19) 0.6448(15) 0.1121(11) 0.066(6) 1 0
loop_
_atom_site_aniso_label
_atom_site_aniso_type_symbol
_atom_site_aniso_U_11
_atom_site_aniso_U_22
_atom_site_aniso_U_33
_atom_site_aniso_U_12
_atom_site_aniso_U_13
_atom_site_aniso_U_23
Cu1 Cu2+ 0.01371(7) 0.01504(7) 0.01959(7) -0.00135(4) 0.00330(5) 0.00235(5)
Na1 Na1+ 0.0178(2) 0.0225(2) 0.0309(2) 0.00146(17) 0.00203(18) 0.00525(19)
Na2 Na1+ 0.0177(2) 0.0195(2) 0.0224(2) -0.00301(16) 0.00377(16) -0.00043(17)
O1 O2- 0.0244(4) 0.0229(4) 0.0287(4) -0.0023(3) 0.0021(3) -0.0049(3)
O2 O2- 0.0241(4) 0.0209(4) 0.0228(4) 0.0004(3) 0.0052(3) -0.0021(3)
O3 O2- 0.0441(6) 0.0300(5) 0.0455(6) -0.0003(4) -0.0026(5) 0.0096(5)
O4 O2- 0.0247(4) 0.0214(4) 0.0365(5) -0.0018(3) 0.0073(4) -0.0010(3)
O5 O2- 0.0212(4) 0.0218(4) 0.0382(5) -0.0009(3) 0.0075(3) -0.0030(3)
O6 O2- 0.0275(4) 0.0201(4) 0.0250(4) -0.0019(3) 0.0071(3) 0.0006(3)
O7 O2- 0.0268(4) 0.0199(4) 0.0248(4) -0.0032(3) 0.0011(3) 0.0015(3)
O8 O2- 0.0202(4) 0.0266(4) 0.0233(4) -0.0058(3) -0.0016(3) 0.0060(3)
O9 O2- 0.0198(4) 0.0232(4) 0.0353(5) -0.0024(3) -0.0014(3) -0.0024(4)
O10 O2- 0.0174(4) 0.0246(4) 0.0279(4) -0.0008(3) 0.0035(3) 0.0074(3)
O11 O2- 0.0188(4) 0.0256(4) 0.0353(5) 0.0002(3) 0.0019(3) 0.0099(4)
C1 C3+ 0.0202(5) 0.0213(5) 0.0224(5) 0.0022(4) 0.0028(4) 0.0000(4)
C2 C3- 0.0303(6) 0.0270(7) 0.0513(8) 0.0046(5) 0.0138(6) -0.0079(6)
C3 C3+ 0.0155(4) 0.0228(5) 0.0212(5) -0.0001(4) 0.0052(4) -0.0010(4)
C4 C3- 0.0385(7) 0.0400(8) 0.0221(6) -0.0043(6) 0.0011(5) -0.0023(5)
C5 C3+ 0.0133(4) 0.0206(5) 0.0228(5) 0.0026(4) 0.0033(4) 0.0008(4)
C6 C3- 0.0245(5) 0.0245(6) 0.0275(6) 0.0027(4) 0.0017(4) 0.0061(5)
C7 C3+ 0.0169(5) 0.0190(5) 0.0182(5) -0.0014(4) 0.0002(4) -0.0004(4)
C8 C3- 0.0186(5) 0.0450(8) 0.0347(7) 0.0008(5) 0.0080(5) 0.0145(6)
#End of TTdata_254028-ICSD