
#(C) 2019 by FIZ Karlsruhe - Leibniz Institute for Information Infrastructure.  All rights reserved.
data_260367-ICSD
_database_code_ICSD 260367
_audit_creation_date 2009-08-01
_chemical_name_systematic 'Trisodium trimanganese nonaformate'
_chemical_formula_structural 'Na (Mn (H C O O)3)'
_chemical_formula_sum 'C3 H3 Mn1 Na1 O6'
_chemical_name_structure_type Na(Mn(HCOO)3)
_exptl_crystal_density_diffrn 1.77
_cell_measurement_temperature 153.
_publ_section_title

;
Crystal structure and magnetic properties of a new chiral manganese(II)
three-dimensional framework: Na3 [Mn3 (H C O O)9]
;
loop_
_citation_id
_citation_journal_full
_citation_year
_citation_journal_volume
_citation_page_first
_citation_page_last
_citation_journal_id_ASTM
primary 'Inorganic Chemistry' 2009 48 4737 4742 INOCAJ
loop_
_publ_author_name
'Paredes-Garca, V.'
'Vega, A.'
'Novak, M.A.'
'Vaz, M.G.F.'
'Souza, D.A.'
'Venegas-Yazigi, D.'
'Spodine, E.'
_cell_length_a 9.2762(11)
_cell_length_b 9.2762(11)
_cell_length_c 9.2762(11)
_cell_angle_alpha 90.
_cell_angle_beta 90.
_cell_angle_gamma 90.
_cell_volume 798.2
_cell_formula_units_Z 4
_symmetry_space_group_name_H-M 'P 21 3'
_symmetry_Int_Tables_number 198
_refine_ls_R_factor_all 0.0248
loop_
_symmetry_equiv_pos_site_id
_symmetry_equiv_pos_as_xyz
1 '-z+1/2, -x, y+1/2'
2 '-y+1/2, -z, x+1/2'
3 '-x+1/2, -y, z+1/2'
4 '-z, x+1/2, -y+1/2'
5 '-y, z+1/2, -x+1/2'
6 '-x, y+1/2, -z+1/2'
7 'z+1/2, -x+1/2, -y'
8 'y+1/2, -z+1/2, -x'
9 'x+1/2, -y+1/2, -z'
10 'z, x, y'
11 'y, z, x'
12 'x, y, z'
loop_
_atom_type_symbol
_atom_type_oxidation_number
Mn2+ 2
O2- -2
C2+ 2
H1+ 1
O2- -2
Na1+ 1
loop_
_atom_site_label
_atom_site_type_symbol
_atom_site_symmetry_multiplicity
_atom_site_Wyckoff_symbol
_atom_site_fract_x
_atom_site_fract_y
_atom_site_fract_z
_atom_site_B_iso_or_equiv
_atom_site_occupancy
_atom_site_attached_hydrogens
Mn1 Mn2+ 4 a 0.85871(4) 0.64129(4) 0.35871(4) 0.0196(2) 1 0
O1 O2- 12 b 0.6443(2) 0.7171(2) 0.4284(2) 0.0345(5) 1 0
C1 C2+ 12 b 0.5275(3) 0.7380(5) 0.3664(4) 0.0466(9) 1 0
H1 H1+ 12 b 0.5227 0.7115 0.2698 0.056 1 0
O2 O2- 12 b 0.4153(2) 0.7911(3) 0.4203(2) 0.0347(5) 1 0
Na1 Na1+ 4 a 0.68126(11) 0.68126(11) 0.68126(11) 0.0223(4) 1 0
loop_
_atom_site_aniso_label
_atom_site_aniso_type_symbol
_atom_site_aniso_U_11
_atom_site_aniso_U_22
_atom_site_aniso_U_33
_atom_site_aniso_U_12
_atom_site_aniso_U_13
_atom_site_aniso_U_23
Mn1 Mn2+ 0.0196(2) 0.0196(2) 0.0196(2) -0.00107(14) 0.00107(14) -0.00107(14)
O1 O2- 0.0205(9) 0.0533(13) 0.0297(9) 0.0105(10) -0.0011(9) -0.0053(9)
C1 C2+ 0.0271(14) 0.086(3) 0.0264(14) 0.0174(15) -0.0001(12) -0.0164(17)
O2 O2- 0.0219(9) 0.0540(14) 0.0282(9) 0.0126(9) 0.0007(8) -0.0029(10)
Na1 Na1+ 0.0223(4) 0.0223(4) 0.0223(4) 0.0022(4) 0.0022(4) 0.0022(4)
#End of TTdata_260367-ICSD