
#(C) 2019 by FIZ Karlsruhe - Leibniz Institute for Information Infrastructure.  All rights reserved.
data_281388-ICSD
_database_code_ICSD 281388
_audit_creation_date 2004-04-01
_chemical_name_systematic 'Disodium carbonate sesquiperhydrate'
_chemical_formula_structural 'Na2 (C O3) (H2 O2)1.5'
_chemical_formula_sum 'C1 H3 Na2 O6'
_exptl_crystal_density_diffrn 2.12
_publ_section_title 'Sodium percarbonate between 293 and 100 K'
loop_
_citation_id
_citation_journal_full
_citation_year
_citation_journal_volume
_citation_page_first
_citation_page_last
_citation_journal_id_ASTM
primary 'Acta Crystallographica, Section B: Structural Science' 2003 59 596 605
ASBSDK
loop_
_publ_author_name
'Pritchard, R.G.'
'Islam, E.'
_cell_length_a 9.224(4)
_cell_length_b 15.805(4)
_cell_length_c 6.747(2)
_cell_angle_alpha 90.
_cell_angle_beta 90.
_cell_angle_gamma 90.
_cell_volume 983.61
_cell_formula_units_Z 8
_symmetry_space_group_name_H-M 'A c a m'
_symmetry_Int_Tables_number 64
_refine_ls_R_factor_all 0.0638
loop_
_symmetry_equiv_pos_site_id
_symmetry_equiv_pos_as_xyz
1 'x+1/2, -y+1/2, -z'
2 '-x+1/2, y+1/2, -z'
3 'x, y, -z'
4 '-x, -y, -z'
5 '-x+1/2, y+1/2, z'
6 'x+1/2, -y+1/2, z'
7 '-x, -y, z'
8 'x, y, z'
9 'x+1/2, -y, -z+1/2'
10 '-x+1/2, y, -z+1/2'
11 'x, y+1/2, -z+1/2'
12 '-x, -y+1/2, -z+1/2'
13 '-x+1/2, y, z+1/2'
14 'x+1/2, -y, z+1/2'
15 '-x, -y+1/2, z+1/2'
16 'x, y+1/2, z+1/2'
loop_
_atom_type_symbol
_atom_type_oxidation_number
Na1+ 1
C4+ 4
O2- -2
O1- -1
H1+ 1
loop_
_atom_site_label
_atom_site_type_symbol
_atom_site_symmetry_multiplicity
_atom_site_Wyckoff_symbol
_atom_site_fract_x
_atom_site_fract_y
_atom_site_fract_z
_atom_site_B_iso_or_equiv
_atom_site_occupancy
_atom_site_attached_hydrogens
Na1 Na1+ 8 e 0.25 -.01085(9) 0.25 0.0265(5) 1. 0
Na2 Na1+ 8 c 0 0.25 0.25 0.0231(5) 1. 0
C1 C4+ 8 f 0.2494(4) 0.1623(2) 0 0.0131(10) 1. 0
O1 O2- 8 f 0.1833(3) 0.09055(14) 0 0.0189(7) 1. 0
O2 O2- 8 f 0.3901(3) 0.16505(15) 0 0.0208(9) 1. 0
O3 O2- 8 f 0.1775(3) 0.23251(14) 0 0.0193(8) 1. 0
O4 O1- 8 f 0.5507(7) 0.0347(3) 0 0.034(2) 0.49 0
O5 O1- 16 g 0.5082(11) 0.0230(4) 0.0962(12) 0.025(3) 0.26 0
O6 O1- 16 g 0.9115(5) 0.1135(2) -.0952(6) 0.0245(16) 0.5 0
O7 O1- 16 g 0.8398(5) 0.1393(3) 0.0940(7) 0.0311(17) 0.5 0
H1 H1+ 16 g 0.765(3) 0.184(2) 0.074(6) 0.05 0.5 0
H2 H1+ 16 g 0.493(3) 0.0839(12) 0.071(5) 0.058 0.5 0
H3 H1+ 16 g 0.891(6) 0.0523(14) -.128(6) 0.054 0.5 0
loop_
_atom_site_aniso_label
_atom_site_aniso_type_symbol
_atom_site_aniso_U_11
_atom_site_aniso_U_22
_atom_site_aniso_U_33
_atom_site_aniso_U_12
_atom_site_aniso_U_13
_atom_site_aniso_U_23
Na1 Na1+ 0.0345(9) 0.0172(7) 0.0279(11) 0 -0.0031(8) 0
Na2 Na1+ 0.0183(8) 0.0242(7) 0.0269(12) 0.0048(6) 0.0014(7) -0.0002(8)
C1 C4+ 0.0110(16) 0.0129(16) 0.016(3) -0.0023(13) 0 0
O1 O2- 0.0152(11) 0.0187(11) 0.023(2) -0.0023(10) 0 0
O2 O2- 0.0158(13) 0.0145(12) 0.032(3) -0.0008(10) 0 0
O3 O2- 0.0127(11) 0.0198(12) 0.025(2) 0.0006(10) 0 0
O4 O1- 0.021(3) 0.007(2) 0.075(6) -0.009(2) 0 0
O5 O1- 0.042(5) 0.024(5) 0.010(7) 0.022(5) 0.001(4) 0.010(3)
O6 O1- 0.042(2) 0.0166(18) 0.015(4) -0.0032(17) 0.0005(19) -0.0103(16)
O7 O1- 0.036(2) 0.028(2) 0.029(5) 0.0132(19) 0.006(2) 0.0110(17)
#End of TTdata_281388-ICSD