
#(C) 2019 by FIZ Karlsruhe - Leibniz Institute for Information Infrastructure.  All rights reserved.
data_281387-ICSD
_database_code_ICSD 281387
_audit_creation_date 2004-04-01
_audit_update_record 2011-02-01
_chemical_name_systematic 'Disodium carbonate sesquiperhydrate'
_chemical_formula_structural 'Na2 (C O3) (H2 O2)1.5'
_chemical_formula_sum 'C1 H3 Na2 O6'
_chemical_name_structure_type Na2CO3(H2O2)1.5(Pbca)
_exptl_crystal_density_diffrn 2.19
_cell_measurement_temperature 100.
_publ_section_title 'Sodium percarbonate between 293 and 100 K'
loop_
_citation_id
_citation_journal_full
_citation_year
_citation_journal_volume
_citation_page_first
_citation_page_last
_citation_journal_id_ASTM
primary 'Acta Crystallographica, Section B: Structural Science' 2003 59 596 605
ASBSDK
loop_
_publ_author_name
'Pritchard, R.G.'
'Islam, E.'
_cell_length_a 6.6521(3)
_cell_length_b 15.7579(8)
_cell_length_c 9.1062(4)
_cell_angle_alpha 90.
_cell_angle_beta 90.
_cell_angle_gamma 90.
_cell_volume 954.54
_cell_formula_units_Z 8
_symmetry_space_group_name_H-M 'P b c a'
_symmetry_Int_Tables_number 61
_refine_ls_R_factor_all 0.027
loop_
_symmetry_equiv_pos_site_id
_symmetry_equiv_pos_as_xyz
1 'x+1/2, y, -z+1/2'
2 'x, -y+1/2, z+1/2'
3 '-x+1/2, y+1/2, z'
4 '-x, -y, -z'
5 '-x+1/2, -y, z+1/2'
6 '-x, y+1/2, -z+1/2'
7 'x+1/2, -y+1/2, -z'
8 'x, y, z'
loop_
_atom_type_symbol
_atom_type_oxidation_number
C4+ 4
Na1+ 1
O2- -2
O1- -1
H1+ 1
loop_
_atom_site_label
_atom_site_type_symbol
_atom_site_symmetry_multiplicity
_atom_site_Wyckoff_symbol
_atom_site_fract_x
_atom_site_fract_y
_atom_site_fract_z
_atom_site_B_iso_or_equiv
_atom_site_occupancy
_atom_site_attached_hydrogens
C1 C4+ 8 c -.00445(9) 0.33817(6) 0.25232(9) 0.0092(2) 1. 0
Na1 Na1+ 8 c 0.25366(4) 0.01087(2) 0.26432(4) 0.01323(9) 1. 0
Na2 Na1+ 8 c 0.24232(4) 0.249619(19) 0.00016(3) 0.01203(10) 1. 0
O1 O2- 8 c -.01074(7) 0.26878(4) 0.17769(7) 0.01202(15) 1. 0
O2 O2- 8 c 0.00490(7) 0.41020(4) 0.18515(6) 0.01187(15) 1. 0
O3 O2- 8 c -.00735(7) 0.33477(4) 0.39344(6) 0.01209(15) 1. 0
O4 O1- 8 c -.10005(8) 0.13783(4) 0.33911(7) 0.01467(14) 1. 0
O5 O1- 8 c 0.09249(8) 0.11496(4) 0.41087(6) 0.01407(14) 1. 0
O6 O1- 8 c 0.08674(11) 0.02655(5) 0.02201(9) 0.0169(2) 0.8493(17) 0
O7 O1- 8 c 0.0211(8) 0.0335(3) 0.0563(5) 0.0219(14) 0.1507(17) 0
H1 H1+ 8 c -.0513(17) 0.1865(7) 0.2718(13) 0.041(3) 1. 0
H2 H1+ 8 c 0.0456(14) 0.1015(7) 0.5085(15) 0.039(3) 1. 0
H3 H1+ 8 c 0.0358(14) 0.0768(8) -.0218(14) 0.034(3) 1. 0
loop_
_atom_site_aniso_label
_atom_site_aniso_type_symbol
_atom_site_aniso_U_11
_atom_site_aniso_U_22
_atom_site_aniso_U_33
_atom_site_aniso_U_12
_atom_site_aniso_U_13
_atom_site_aniso_U_23
C1 C4+ 0.0052(4) 0.0122(5) 0.0103(4) -0.0003(3) -0.0002(3) -0.0006(3)
Na1 Na1+ 0.0128(2) 0.01178(18) 0.01509(18) 0.00014(12) 0.00158(13) 0.00017(14)
Na2 Na1+ 0.0111(2) 0.0136(2) 0.01139(19) 0.00001(13) -0.00011(13) -0.00137(14)
O1 O2- 0.0145(3) 0.0097(3) 0.0118(3) -0.0004(2) -0.0005(2) -0.0006(2)
O2 O2- 0.0137(3) 0.0096(3) 0.0124(3) 0.0003(2) 0.0008(2) 0.0011(2)
O3 O2- 0.0147(3) 0.0112(3) 0.0104(3) -0.0004(2) 0.0001(2) 0.0001(2)
O4 O1- 0.0135(3) 0.0158(3) 0.0147(3) -0.0003(2) -0.0049(2) 0.0019(3)
O5 O1- 0.0125(3) 0.0179(3) 0.0118(3) 0.0032(2) -0.0018(2) 0.0017(2)
O6 O1- 0.0186(4) 0.0117(4) 0.0203(4) -0.0065(3) -0.0086(3) 0.0028(3)
O7 O1- 0.038(3) 0.017(3) 0.011(2) -0.006(2) 0.000(2) 0.0019(19)
#End of TTdata_281387-ICSD