
#(C) 2019 by FIZ Karlsruhe - Leibniz Institute for Information Infrastructure.  All rights reserved.
data_405228-ICSD
_database_code_ICSD 405228
_audit_creation_date 2003-04-01
_chemical_name_systematic 'Sodium dipotassium hydrogendicarbonate dihydrate'
_chemical_formula_structural 'Na K2 (H (C O3)2) (H2 O)2'
_chemical_formula_sum 'C2 H5 K2 Na1 O8'
_chemical_name_structure_type NaK2H(CO3)2(H2O)2
_exptl_crystal_density_diffrn 2.04
_publ_section_title

;
Darstellung und Struktur der ersten gemischten Alkalimetall- hydrogencarbonate
Na A2 (H (C O3)2) * 2(H2 O) mit A= K, Rb
;
loop_
_citation_id
_citation_journal_full
_citation_year
_citation_journal_volume
_citation_page_first
_citation_page_last
_citation_journal_id_ASTM
primary 'Zeitschrift fuer Anorganische und Allgemeine Chemie (1950) (DE)' 1996
622 2023 2030 ZAACAB
loop_
_publ_author_name
'Adam, A.'
'Cirpus, V.'
_cell_length_a 9.3407(13)
_cell_length_b 7.8931(10)
_cell_length_c 11.421(5)
_cell_angle_alpha 90.
_cell_angle_beta 90.
_cell_angle_gamma 90.
_cell_volume 842.04
_cell_formula_units_Z 4
_symmetry_space_group_name_H-M 'P n m a'
_symmetry_Int_Tables_number 62
_refine_ls_R_factor_all 0.0384
loop_
_symmetry_equiv_pos_site_id
_symmetry_equiv_pos_as_xyz
1 'x+1/2, y, -z+1/2'
2 'x, -y+1/2, z'
3 '-x+1/2, y+1/2, z+1/2'
4 '-x, -y, -z'
5 '-x+1/2, -y, z+1/2'
6 '-x, y+1/2, -z'
7 'x+1/2, -y+1/2, -z+1/2'
8 'x, y, z'
loop_
_atom_type_symbol
_atom_type_oxidation_number
Na1+ 1
K1+ 1
O2- -2
C4+ 4
O2- -2
C4+ 4
O2- -2
H1+ 1
loop_
_atom_site_label
_atom_site_type_symbol
_atom_site_symmetry_multiplicity
_atom_site_Wyckoff_symbol
_atom_site_fract_x
_atom_site_fract_y
_atom_site_fract_z
_atom_site_B_iso_or_equiv
_atom_site_occupancy
_atom_site_attached_hydrogens
Na1 Na1+ 4 c 0.03975(10) 0.25 0.33748(8) . 1. 0
K1 K1+ 8 d 0.20152(4) 0.51023(4) 0.11593(3) . 1. 0
O1 O2- 4 c 0.2563(2) 0.25 0.44329(12) . 1. 0
O2 O2- 4 c 0.3009(2) 0.25 0.25107(13) . 1. 0
O3 O2- 4 c 0.4811(2) 0.25 0.37675(14) . 1. 0
C1 C4+ 4 c 0.3390(2) 0.25 0.3569(2) . 1. 0
O4 O2- 4 c 0.5240(2) 0.25 0.58934(14) . 1. 0
O5 O2- 4 c 0.7585(2) 0.25 0.55422(13) . 1. 0
O6 O2- 4 c 0.6752(2) 0.25 0.73725(13) . 1. 0
C2 C4+ 4 c 0.6554(2) 0.25 0.6273(2) . 1. 0
O7 O2- 8 d 0.4723(2) 0.0396(2) 0.84294(13) . 1. 0
H1 H1+ 4 c 0.4991(42) 0.25 0.4581(36) 0.092(14) 1. 0
H2 H1+ 8 d 0.4132(24) 0.0947(26) 0.8780(17) 0.038(6) 1. 0
H3 H1+ 8 d 0.5279(21) 0.1033(26) 0.8097(19) 0.048(6) 1. 0
loop_
_atom_site_aniso_label
_atom_site_aniso_type_symbol
_atom_site_aniso_U_11
_atom_site_aniso_U_22
_atom_site_aniso_U_33
_atom_site_aniso_U_12
_atom_site_aniso_U_13
_atom_site_aniso_U_23
Na1 Na1+ 0.0265(5) 0.0209(4) 0.0372(5) 0 -0.0102(4) 0
K1 K1+ 0.0296(2) 0.0224(2) 0.0237(2) -0.00075(13) -0.00406(14) 0.00209(13)
O1 O2- 0.0173(8) 0.0365(8) 0.0186(8) 0 0.0016(6) 0
O2 O2- 0.0237(8) 0.0290(7) 0.0156(7) 0 -0.0040(6) 0
O3 O2- 0.0161(8) 0.0473(10) 0.0189(7) 0 -0.0006(6) 0
C1 C4+ 0.0188(10) 0.0159(8) 0.0198(11) 0 -0.0018(8) 0
O4 O2- 0.0179(8) 0.0691(13) 0.0217(8) 0 -0.0047(7) 0
O5 O2- 0.0203(8) 0.0365(8) 0.0198(8) 0 0.0006(6) 0
O6 O2- 0.0251(9) 0.0355(8) 0.0154(7) 0 -0.0030(6) 0
C2 C4+ 0.0200(11) 0.0182(9) 0.0166(10) 0 -0.0035(8) 0
O7 O2- 0.0350(7) 0.0213(5) 0.0521(8) 0.0011(5) 0.0163(7) 0.0014(6)
#End of TTdata_405228-ICSD