
#(C) 2019 by FIZ Karlsruhe - Leibniz Institute for Information Infrastructure.  All rights reserved.
data_407808-ICSD
_database_code_ICSD 407808
_audit_creation_date 1998-06-26
_chemical_name_systematic 'Trisodium tris(dicyanamide) trihydrate'
_chemical_formula_structural 'Na3 (C2 N3)3 (H2 O)3'
_chemical_formula_sum 'C6 H6 N9 Na3 O3'
_exptl_crystal_density_diffrn 1.81
_cell_measurement_temperature 173.
_publ_section_title

;
Trimerisierung von Dicyanamid-Ionen C2N3- - Ionen im Festkoerper; Synthesen,
Kristallstrukturen und Eigenschaften von Na Cs2 (C2 N3)3 und Na3 C6 N9 . 3(H2
O)
;
loop_
_citation_id
_citation_journal_full
_citation_year
_citation_journal_volume
_citation_page_first
_citation_page_last
_citation_journal_id_ASTM
primary 'Zeitschrift fuer Anorganische und Allgemeine Chemie (1950) (DE)' 1998
624 91 97 ZAACAB
loop_
_publ_author_name
'Juergens, B.'
'Milius, W.'
'Morys, P.'
'Schnick, W.'
_cell_length_a 10.2353(8)
_cell_length_b 10.2353(8)
_cell_length_c 6.5085(15)
_cell_angle_alpha 90.
_cell_angle_beta 90.
_cell_angle_gamma 120.
_cell_volume 590.49
_cell_formula_units_Z 2
_symmetry_space_group_name_H-M 'P -6 2 c'
_symmetry_Int_Tables_number 190
_refine_ls_R_factor_all 0.0276
loop_
_symmetry_equiv_pos_site_id
_symmetry_equiv_pos_as_xyz
1 '-x, -x+y, -z'
2 'x-y, -y, -z'
3 'y, x, -z'
4 '-x, -x+y, z+1/2'
5 'x-y, -y, z+1/2'
6 'y, x, z+1/2'
7 '-x+y, -x, -z+1/2'
8 '-y, x-y, -z+1/2'
9 'x, y, -z+1/2'
10 '-x+y, -x, z'
11 '-y, x-y, z'
12 'x, y, z'
loop_
_atom_type_symbol
_atom_type_oxidation_number
Na1+ 1
O2- -2
H1+ 1
C4+ 4
N3- -3
loop_
_atom_site_label
_atom_site_type_symbol
_atom_site_symmetry_multiplicity
_atom_site_Wyckoff_symbol
_atom_site_fract_x
_atom_site_fract_y
_atom_site_fract_z
_atom_site_B_iso_or_equiv
_atom_site_occupancy
_atom_site_attached_hydrogens
Na1 Na1+ 6 g 0 0.59554(9) 0 . 1. 0
O1 O2- 6 h 0.2009(2) 0.7361(2) 0.75 . 1. 0
H1 H1+ 6 h 0.2932(42) 0.7779(38) 0.75 0.02 1. 0
H2 H1+ 6 h 0.1738(38) 0.8043(39) 0.75 0.02 1. 0
C1 C4+ 6 h 0.1478(2) 0.0869(2) 0.75 . 1. 0
C2 C4+ 6 h 0.3864(2) 0.1222(3) 0.75 . 1. 0
N1 N3- 6 h 0.0907(2) 0.9360(2) 0.75 . 1. 0
N2 N3- 6 h 0.3000(2) 0.1833(2) 0.75 . 1. 0
N3 N3- 6 h 0.4736(2) 0.0810(2) 0.75 . 1. 0
loop_
_atom_site_aniso_label
_atom_site_aniso_type_symbol
_atom_site_aniso_U_11
_atom_site_aniso_U_22
_atom_site_aniso_U_33
_atom_site_aniso_U_12
_atom_site_aniso_U_13
_atom_site_aniso_U_23
Na1 Na1+ 0.0175(5) 0.0143(3) 0.0143(4) 0.0087(2) -.0010(4) -.0005(2)
O1 O2- 0.0124(8) 0.0102(9) 0.0268(9) 0.0054(7) 0 0
C1 C4+ 0.0085(10) 0.0094(10) 0.0083(9) 0.0044(8) 0 0
C2 C4+ 0.0099(9) 0.0084(9) 0.0111(9) 0.0008(8) 0 0
N1 N3- 0.0089(9) 0.0075(8) 0.0126(8) 0.0038(7) 0 0
N2 N3- 0.0072(8) 0.0095(9) 0.0161(8) 0.0046(7) 0 0
N3 N3- 0.0152(10) 0.0190(11) 0.0216(10) 0.0118(9) 0 0
#End of TTdata_407808-ICSD