
#(C) 2019 by FIZ Karlsruhe - Leibniz Institute for Information Infrastructure.  All rights reserved.
data_414681-ICSD
_database_code_ICSD 414681
_audit_creation_date 2005-10-01
_audit_update_record 2008-02-01
_chemical_name_systematic 'Disodium dicobalt trioxalate dihydrate'
_chemical_formula_structural 'Na2 Co2 (C2 O4)3 (H2 O)2'
_chemical_formula_sum 'C6 H4 Co2 Na2 O14'
_chemical_name_structure_type Na2Mg2(C2O4)3(H2O)2
_exptl_crystal_density_diffrn 2.44
_publ_section_title

;
Hydrothermal synthesis, structure, stability and magnetism of Na2 Co2 (C2 O4)3
(H2 O)2: a new metal oxalate ladder
;
loop_
_citation_id
_citation_journal_full
_citation_year
_citation_journal_volume
_citation_page_first
_citation_page_last
_citation_journal_id_ASTM
primary 'Dalton (2000) - An International Journal of Inorganic Chemistry' 2000
2000 3566 3567 DALTFG
loop_
_publ_author_name
'Price, D.J.'
'Powell, A.K.'
'Wood, P.T.'
_cell_length_a 5.864(4)
_cell_length_b 15.723(6)
_cell_length_c 6.963(3)
_cell_angle_alpha 90.
_cell_angle_beta 100.36(4)
_cell_angle_gamma 90.
_cell_volume 631.52
_cell_formula_units_Z 2
_symmetry_space_group_name_H-M 'P 1 21/c 1'
_symmetry_Int_Tables_number 14
_refine_ls_R_factor_all 0.038
loop_
_symmetry_equiv_pos_site_id
_symmetry_equiv_pos_as_xyz
1 'x, -y+1/2, z+1/2'
2 '-x, -y, -z'
3 '-x, y+1/2, -z+1/2'
4 'x, y, z'
loop_
_atom_type_symbol
_atom_type_oxidation_number
Co2+ 2
Na1+ 1
O2- -2
C3+ 3
O2- -2
C3+ 3
O2- -2
C3+ 3
O2- -2
H1+ 1
loop_
_atom_site_label
_atom_site_type_symbol
_atom_site_symmetry_multiplicity
_atom_site_Wyckoff_symbol
_atom_site_fract_x
_atom_site_fract_y
_atom_site_fract_z
_atom_site_B_iso_or_equiv
_atom_site_occupancy
_atom_site_attached_hydrogens
Co1 Co2+ 4 e 0.76949(6) 0.10033(2) 0.21577(5) 0.0157(2) 1 0
Na1 Na1+ 4 e 0.9662(2) 0.31659(7) 0.3076(2) 0.0227(3) 1 0
O1 O2- 4 e 0.8985(4) 0.10338(12) 0.5163(3) 0.0244(5) 1 0
O2 O2- 4 e 0.6795(4) 0.08595(14) -0.0861(3) 0.0200(5) 1 0
O3 O2- 4 e 1.0821(3) 0.15893(12) 0.1741(3) 0.0236(5) 1 0
C1 C3+ 4 e 1.0044(5) 0.0363(2) 0.5749(4) 0.0180(6) 1 0
O4 O2- 4 e 1.3501(3) 0.29823(12) 0.2836(3) 0.0282(5) 1 0
C2 C3+ 4 e 1.2977(5) 0.1494(2) 0.2145(4) 0.0176(6) 1 0
O5 O2- 4 e 1.1161(3) 0.02355(12) 0.7438(3) 0.0214(4) 1 0
O6 O2- 4 e 1.4071(3) 0.08047(12) 0.2304(3) 0.0222(5) 1 0
C3 C3+ 4 e 1.4444(4) 0.2315(2) 0.2460(4) 0.0179(6) 1 0
O7 O2- 4 e 1.6549(3) 0.22301(12) 0.2329(3) 0.0218(5) 1 0
H1 H1+ 4 e 0.6719(56) 0.0377(23) -0.1379(49) 0.028(10) 1 0
H2 H1+ 4 e 0.5722(77) 0.1099(26) -0.1316(61) 0.055(14) 1 0
loop_
_atom_site_aniso_label
_atom_site_aniso_type_symbol
_atom_site_aniso_U_11
_atom_site_aniso_U_22
_atom_site_aniso_U_33
_atom_site_aniso_U_12
_atom_site_aniso_U_13
_atom_site_aniso_U_23
Co1 Co2+ 0.0136(2) 0.0133(2) 0.0198(2) 0.00143(14) 0.0018(2) 0.0002(2)
Na1 Na1+ 0.0178(6) 0.0246(6) 0.0258(6) -0.0004(5) 0.0039(5) 0.0027(5)
O1 O2- 0.0330(12) 0.0178(11) 0.0209(10) 0.0088(9) 0.0005(9) -0.0021(9)
O2 O2- 0.0184(11) 0.0176(11) 0.0229(11) 0.0014(9) 0.0007(9) -0.0014(9)
O3 O2- 0.0117(10) 0.0252(11) 0.0342(12) -0.0022(8) 0.0046(8) 0.0016(9)
C1 C3+ 0.0180(13) 0.0146(14) 0.0221(14) -0.0004(11) 0.0057(11) -0.0015(12)
O4 O2- 0.0183(10) 0.0179(11) 0.0481(13) 0.0022(9) 0.0049(10) -0.0075(9)
C2 C3+ 0.0169(13) 0.0205(15) 0.0161(13) 0.0003(12) 0.0047(11) 0.0006(12)
O5 O2- 0.0282(11) 0.0164(10) 0.0179(10) 0.0029(8) -0.0005(8) 0.0002(8)
O6 O2- 0.0157(9) 0.0164(10) 0.0347(12) -0.0011(8) 0.0048(9) -0.0013(9)
C3 C3+ 0.0158(14) 0.0164(14) 0.0200(13) 0.0026(11) -0.0001(11) -0.0018(11)
O7 O2- 0.0139(9) 0.0148(10) 0.0366(12) 0.0001(8) 0.0045(9) -0.0015(9)
#End of TTdata_414681-ICSD