
#(C) 2019 by FIZ Karlsruhe - Leibniz Institute for Information Infrastructure.  All rights reserved.
data_427052-ICSD
_database_code_ICSD 427052
_audit_creation_date 2014-08-01
_chemical_name_systematic 'Sodium carbamide'
_chemical_formula_structural 'C O (N H2) (N H Na)'
_chemical_formula_sum 'C1 H3 N2 Na1 O1'
_exptl_crystal_density_diffrn 1.79
_cell_measurement_temperature 100.
_publ_section_title

;
The first structurally characterized salts of deprotonated urea: M (C N2 H3 O)
with M = Na, K, Rb, and Cs
;
loop_
_citation_id
_citation_journal_full
_citation_year
_citation_journal_volume
_citation_page_first
_citation_page_last
_citation_journal_id_ASTM
primary 'Zeitschrift fuer Anorganische und Allgemeine Chemie (1950) (DE)' 2014
640 846 850 ZAACAB
loop_
_publ_author_name
'Sawinski, Hannah'
'Dronskowski, Richard'
_cell_length_a 17.5294(14)
_cell_length_b 6.4784(5)
_cell_length_c 10.8211(9)
_cell_angle_alpha 90.
_cell_angle_beta 96.9380(10)
_cell_angle_gamma 90.
_cell_volume 1219.87
_cell_formula_units_Z 16
_symmetry_space_group_name_H-M 'P 1 21/c 1'
_symmetry_Int_Tables_number 14
_refine_ls_R_factor_all 0.0277
loop_
_symmetry_equiv_pos_site_id
_symmetry_equiv_pos_as_xyz
1 'x, -y+1/2, z+1/2'
2 '-x, -y, -z'
3 '-x, y+1/2, -z+1/2'
4 'x, y, z'
loop_
_atom_type_symbol
_atom_type_oxidation_number
Na1+ 1
C4+ 4
O2- -2
N3- -3
H1+ 1
loop_
_atom_site_label
_atom_site_type_symbol
_atom_site_symmetry_multiplicity
_atom_site_Wyckoff_symbol
_atom_site_fract_x
_atom_site_fract_y
_atom_site_fract_z
_atom_site_B_iso_or_equiv
_atom_site_occupancy
_atom_site_attached_hydrogens
Na1 Na1+ 4 e -0.00091(3) 1.04643(8) 0.24003(5) 0.01320(14) 1 0
Na2 Na1+ 4 e -0.08225(3) 0.67162(8) 0.47602(5) 0.01280(14) 1 0
Na3 Na1+ 4 e 0.50338(3) 0.54942(8) 0.24605(5) 0.01415(14) 1 0
Na4 Na1+ 4 e 0.57722(3) 0.19253(9) 0.01895(5) 0.01572(15) 1 0
C1 C4+ 4 e 0.07033(7) 0.8173(2) 0.49551(13) 0.0101(3) 1 0
C2 C4+ 4 e 0.17349(8) 1.3033(2) 0.27904(12) 0.0113(3) 1 0
C3 C4+ 4 e 0.41798(8) 0.2753(2) 0.00616(13) 0.0120(3) 1 0
C4 C4+ 4 e 0.67335(8) 0.3110(2) 0.28029(13) 0.0122(3) 1 0
O1 O2- 4 e 0.02201(5) 0.81839(14) 0.39746(9) 0.0110(2) 1 0
O2 O2- 4 e 0.14349(5) 1.13379(15) 0.23454(9) 0.0128(2) 1 0
O3 O2- 4 e 0.60789(5) 0.27910(15) 0.31909(9) 0.0160(2) 1 0
O4 O2- 4 e 0.46870(5) 0.30218(15) 0.10025(9) 0.0142(2) 1 0
N1 N3- 4 e 0.25019(7) 1.3355(2) 0.26219(12) 0.0151(3) 1 0
N2 N3- 4 e 0.05955(7) 0.70612(17) 0.59369(11) 0.0119(2) 1 0
N3 N3- 4 e 0.13394(7) 0.94782(19) 0.49392(11) 0.0131(2) 1 0
N4 N3- 4 e 0.73300(7) 0.3740(2) 0.36889(12) 0.0166(3) 1 0
N5 N3- 4 e 0.43390(7) 0.18017(18) -0.09552(11) 0.0137(3) 1 0
N6 N3- 4 e 0.68552(7) 0.27490(19) 0.16485(11) 0.0161(3) 1 0
N7 N3- 4 e 0.13618(7) 1.43466(19) 0.34163(11) 0.0138(3) 1 0
N8 N3- 4 e 0.34439(7) 0.3437(2) 0.02010(12) 0.0188(3) 1 0
H1 H1+ 4 e 0.3917(11) 0.175(3) -0.1503(17) 0.0239(14) 1 0
H2 H1+ 4 e 0.0985(11) 0.721(3) 0.6519(17) 0.0239(14) 1 0
H3 H1+ 4 e 0.2655(9) 1.460(2) 0.2779(16) 0.0239(14) 1 0
H4 H1+ 4 e 0.2660(10) 1.277(3) 0.2012(15) 0.0239(14) 1 0
H5 H1+ 4 e 0.1746(9) 0.904(3) 0.5400(15) 0.0239(14) 1 0
H6 H1+ 4 e 0.3165(10) 0.356(3) -0.0463(18) 0.0239(14) 1 0
H7 H1+ 4 e 0.3438(10) 0.453(3) 0.0716(17) 0.0239(14) 1 0
H8 H1+ 4 e 0.1440(9) 0.981(3) 0.4174(14) 0.0239(14) 1 0
H9 H1+ 4 e 0.7354(11) 0.311(3) 0.1600(16) 0.0239(14) 1 0
H10 H1+ 4 e 0.1662(10) 1.545(3) 0.3622(16) 0.0239(14) 1 0
H11 H1+ 4 e 0.7178(10) 0.427(3) 0.4399(17) 0.0239(14) 1 0
H12 H1+ 4 e 0.7705(10) 0.437(3) 0.3376(16) 0.0239(14) 1 0
loop_
_atom_site_aniso_label
_atom_site_aniso_type_symbol
_atom_site_aniso_U_11
_atom_site_aniso_U_22
_atom_site_aniso_U_33
_atom_site_aniso_U_12
_atom_site_aniso_U_13
_atom_site_aniso_U_23
Na1 Na1+ 0.0164(3) 0.0117(3) 0.0117(3) 0.0010(2) 0.0022(2) 0.0019(2)
Na2 Na1+ 0.0136(3) 0.0132(3) 0.0119(3) -0.0008(2) 0.0029(2) 0.0001(2)
Na3 Na1+ 0.0170(3) 0.0127(3) 0.0127(3) -0.0005(2) 0.0015(2) -0.0019(2)
Na4 Na1+ 0.0170(3) 0.0170(3) 0.0139(3) -0.0002(2) 0.0047(2) -0.0004(2)
C1 C4+ 0.0115(6) 0.0071(6) 0.0122(7) 0.0019(5) 0.0032(5) -0.0024(5)
C2 C4+ 0.0133(7) 0.0131(7) 0.0073(6) 0.0002(5) 0.0003(5) 0.0044(5)
C3 C4+ 0.0139(6) 0.0081(6) 0.0144(7) -0.0010(5) 0.0035(5) 0.0028(5)
C4 C4+ 0.0132(7) 0.0090(7) 0.0144(7) 0.0015(5) 0.0016(5) 0.0026(5)
O1 O2- 0.0130(5) 0.0100(5) 0.0097(5) -0.0002(4) 0.0002(4) 0.0002(4)
O2 O2- 0.0135(5) 0.0121(5) 0.0127(5) -0.0019(4) 0.0009(4) -0.0010(4)
O3 O2- 0.0129(5) 0.0199(5) 0.0156(5) -0.0026(4) 0.0034(4) -0.0010(4)
O4 O2- 0.0166(5) 0.0135(5) 0.0120(5) -0.0004(4) -0.0004(4) -0.0013(4)
N1 N3- 0.0141(6) 0.0142(6) 0.0178(6) -0.0022(5) 0.0045(5) -0.0044(5)
N2 N3- 0.0129(6) 0.0117(6) 0.0107(6) 0.0007(5) 0.0005(5) 0.0000(4)
N3 N3- 0.0124(6) 0.0152(6) 0.0115(6) -0.0017(5) 0.0003(5) 0.0020(5)
N4 N3- 0.0136(6) 0.0207(7) 0.0158(6) -0.0033(5) 0.0023(5) -0.0007(5)
N5 N3- 0.0136(6) 0.0162(6) 0.0111(6) -0.0004(5) -0.0001(5) -0.0010(5)
N6 N3- 0.0171(6) 0.0167(6) 0.0150(6) -0.0005(5) 0.0040(5) 0.0006(5)
N7 N3- 0.0162(6) 0.0121(6) 0.0137(6) -0.0004(5) 0.0035(5) -0.0002(5)
N8 N3- 0.0171(6) 0.0257(7) 0.0138(7) 0.0059(5) 0.0022(5) 0.0000(5)
#End of TTdata_427052-ICSD