
#(C) 2019 by FIZ Karlsruhe - Leibniz Institute for Information Infrastructure.  All rights reserved.
data_44802-ICSD
_database_code_ICSD 44802
_audit_creation_date 2000-12-16
_audit_update_record 2007-08-01
_chemical_name_systematic 'Trisodium carbonate hydrogencarbonate dihydrate'
_chemical_formula_structural 'Na2 (C O3) Na (H C O3) (H2 O)2'
_chemical_formula_sum 'C2 H5 Na3 O8'
_chemical_name_structure_type Na3H(CO3)2(H2O)2
_chemical_name_mineral Trona
_exptl_crystal_density_diffrn 2.15
_cell_measurement_temperature 103.
_publ_section_title 'Thermal changes in the structure of sodium sesquicarbonate'
loop_
_citation_id
_citation_journal_full
_citation_year
_citation_journal_volume
_citation_page_first
_citation_page_last
_citation_journal_id_ASTM
primary 'Acta Crystallographica' 1956 9 545 554 ACCRA9
loop_
_publ_author_name
'Candlin, R.'
_cell_length_a 20.335(15)
_cell_length_b 3.49
_cell_length_c 10.270(8)
_cell_angle_alpha 90.
_cell_angle_beta 106.58(3)
_cell_angle_gamma 90.
_cell_volume 698.55
_cell_formula_units_Z 4
_symmetry_space_group_name_H-M 'C 1 2/c 1'
_symmetry_Int_Tables_number 15
loop_
_symmetry_equiv_pos_site_id
_symmetry_equiv_pos_as_xyz
1 'x, -y, z+1/2'
2 '-x, -y, -z'
3 '-x, y, -z+1/2'
4 'x, y, z'
5 'x+1/2, -y+1/2, z+1/2'
6 '-x+1/2, -y+1/2, -z'
7 '-x+1/2, y+1/2, -z+1/2'
8 'x+1/2, y+1/2, z'
loop_
_atom_type_symbol
_atom_type_oxidation_number
Na1+ 1
O2- -2
C4+ 4
H1+ 1
loop_
_atom_site_label
_atom_site_type_symbol
_atom_site_symmetry_multiplicity
_atom_site_Wyckoff_symbol
_atom_site_fract_x
_atom_site_fract_y
_atom_site_fract_z
_atom_site_B_iso_or_equiv
_atom_site_occupancy
_atom_site_attached_hydrogens
Na1 Na1+ 4 e 0 0.748 0.25 0.42 1. 0
Na2 Na1+ 8 f 0.1507 0.165 0.426 0.51 1. 0
O1 O2- 8 f 0.1517 0.373 0.1018 0.51 1. 0
O2 O2- 8 f 0.054 0.139 0.9892 0.51 1. 0
O3 O2- 8 f 0.0732 0.257 0.207 0.51 1. 0
O4 O2- 8 f 0.2127 0.669 0.3542 0.51 1. 0
C1 C4+ 8 f 0.0932 0.262 0.104 0.51 1. 0
H1 H1+ 4 a 0 0 0 0.51 1. 0
H2 H1+ 8 f 0.203 0.59 0.27 0.51 1. 0
H3 H1+ 8 f 0.243 0.73 0.375 0.51 1. 0
#End of TTdata_44802-ICSD