
#(C) 2019 by FIZ Karlsruhe - Leibniz Institute for Information Infrastructure.  All rights reserved.
data_62200-ICSD
_database_code_ICSD 62200
_audit_creation_date 1988-12-19
_audit_update_record 2015-08-01
_chemical_name_systematic 'Trisodium hydrogen dicarbonate dihydrate'
_chemical_formula_structural 'Na3 H (C O3)2 (H2 O)2'
_chemical_formula_sum 'C2 H5 Na3 O8'
_chemical_name_structure_type Na3H(CO3)2(H2O)2
_chemical_name_mineral Trona
_exptl_crystal_density_diffrn 2.12
_publ_section_title

;
Ein Vergleich von Ergebnissen routinemaessiger Strukturbestimmungen mittels
Roentgen- bzw. Neutronen-Einkristalldaten am Beispiel der Trona, Na3 H (C O3)2
(H2 O)2
;
loop_
_citation_id
_citation_journal_full
_citation_year
_citation_journal_volume
_citation_page_first
_citation_page_last
_citation_journal_id_ASTM
primary 'Mitteilungen der Oesterreichischen Mineralogischen Gesellschaft' 1986
131 7 14 MOMGA4
loop_
_publ_author_name
'Pertlik, F.'
_cell_length_a 20.4218(9)
_cell_length_b 3.4913(2)
_cell_length_c 10.3326(6)
_cell_angle_alpha 90.
_cell_angle_beta 106.452(4)
_cell_angle_gamma 90.
_cell_volume 706.54
_cell_formula_units_Z 4
_symmetry_space_group_name_H-M 'C 1 2/c 1'
_symmetry_Int_Tables_number 15
_refine_ls_R_factor_all 0.031
loop_
_symmetry_equiv_pos_site_id
_symmetry_equiv_pos_as_xyz
1 'x, -y, z+1/2'
2 '-x, -y, -z'
3 '-x, y, -z+1/2'
4 'x, y, z'
5 'x+1/2, -y+1/2, z+1/2'
6 '-x+1/2, -y+1/2, -z'
7 '-x+1/2, y+1/2, -z+1/2'
8 'x+1/2, y+1/2, z'
loop_
_atom_type_symbol
_atom_type_oxidation_number
Na1+ 1
C4+ 4
O2- -2
H1+ 1
loop_
_atom_site_label
_atom_site_type_symbol
_atom_site_symmetry_multiplicity
_atom_site_Wyckoff_symbol
_atom_site_fract_x
_atom_site_fract_y
_atom_site_fract_z
_atom_site_B_iso_or_equiv
_atom_site_occupancy
_atom_site_attached_hydrogens
Na1 Na1+ 4 e 0 0.7464(2) 0.25 . 1. 0
Na2 Na1+ 8 f 0.15066(3) 0.1645(2) 0.42589(6) . 1. 0
C1 C4+ 8 f 0.09305(6) 0.2653(3) 0.10352(13) . 1. 0
O1 O2- 8 f 0.15114(5) 0.3995(3) 0.10203(10) . 1. 0
O2 O2- 8 f 0.05439(5) 0.1310(3) 0.98804(10) . 1. 0
O3 O2- 8 f 0.07240(5) 0.2533(3) 0.20763(10) . 1. 0
O4 O2- 8 f 0.21205(6) 0.6646(3) 0.35445(12) . 1. 0
H1 H1+ 8 f 0.194(1) 0.612(6) 0.269(2) 0.044(6) 1. 0
H2 H1+ 8 f 0.248(1) 0.724(6) 0.362(2) 0.051(7) 1. 0
H3 H1+ 8 f 0.022(1) 0.035(9) 0.996(4) 0.017(7) 0.5 0
loop_
_atom_site_aniso_label
_atom_site_aniso_type_symbol
_atom_site_aniso_U_11
_atom_site_aniso_U_22
_atom_site_aniso_U_33
_atom_site_aniso_U_12
_atom_site_aniso_U_13
_atom_site_aniso_U_23
Na1 Na1+ 0.0231(4) 0.0211(4) 0.0213(4) 0 0.0083(3) 0
Na2 Na1+ 0.0285(3) 0.0262(3) 0.0232(3) -.0038(2) 0.0107(2) -.0021(2)
C1 C4+ 0.0177(6) 0.0155(6) 0.0160(6) 0.0036(5) 0.0052(5) 0.0017(4)
O1 O2- 0.0174(5) 0.0298(5) 0.0216(5) -.0028(4) 0.0073(4) 0.0020(4)
O2 O2- 0.0195(5) 0.0314(6) 0.0159(5) -.0021(4) 0.0054(4) -.0029(4)
O3 O2- 0.0203(5) 0.0248(5) 0.0161(4) -.0015(4) 0.0084(4) -.0011(4)
O4 O2- 0.0250(6) 0.0377(6) 0.0231(5) -.0077(5) 0.0085(5) -.0045(4)
#End of TTdata_62200-ICSD