
#(C) 2019 by FIZ Karlsruhe - Leibniz Institute for Information Infrastructure.  All rights reserved.
data_830-ICSD
_database_code_ICSD 830
_audit_creation_date 1980-01-01
_audit_update_record 2011-08-01
_chemical_name_systematic 'Sodium cyanide dihydrate'
_chemical_formula_structural 'Na (C N) (H2 O)2'
_chemical_formula_sum 'C1 H4 N1 Na1 O2'
_exptl_crystal_density_diffrn 1.4
_cell_measurement_temperature 150.
_publ_section_title 'Electron density study of Na C N (H2 O)2 at 150 K'
loop_
_citation_id
_citation_journal_full
_citation_year
_citation_journal_volume
_citation_page_first
_citation_page_last
_citation_journal_id_ASTM
primary

;
Acta Crystallographica, Section B: Structural Crystallography and Crystal
Chemistry
; 1977 33 466 472 ACBCAR
loop_
_publ_author_name
'Bats, J.W.'
_cell_length_a 5.968(2)
_cell_length_b 10.508(4)
_cell_length_c 6.572(2)
_cell_angle_alpha 90.
_cell_angle_beta 102.07
_cell_angle_gamma 90.
_cell_volume 403.03
_cell_formula_units_Z 4
_symmetry_space_group_name_H-M 'P 1 21/c 1'
_symmetry_Int_Tables_number 14
_refine_ls_R_factor_all 0.018
loop_
_symmetry_equiv_pos_site_id
_symmetry_equiv_pos_as_xyz
1 'x, -y+1/2, z+1/2'
2 '-x, -y, -z'
3 '-x, y+1/2, -z+1/2'
4 'x, y, z'
loop_
_atom_type_symbol
_atom_type_oxidation_number
Na1+ 1
O2- -2
N3- -3
C2+ 2
H1+ 1
loop_
_atom_site_label
_atom_site_type_symbol
_atom_site_symmetry_multiplicity
_atom_site_Wyckoff_symbol
_atom_site_fract_x
_atom_site_fract_y
_atom_site_fract_z
_atom_site_B_iso_or_equiv
_atom_site_occupancy
_atom_site_attached_hydrogens
Na1 Na1+ 4 e 0.00103(4) 0.17050(2) 0.93587(3) . 1. 0
O1 O2- 4 e 0.74424(7) 0.29802(4) 0.67779(7) . 1. 0
O2 O2- 4 e 0.19699(7) 0.47913(4) 0.69094(7) . 1. 0
N1 N3- 4 e 0.23294(9) 0.15627(5) 0.61986(9) . 1. 0
C1 C2+ 4 e 0.31965(10) 0.06817(6) 0.70023(9) . 1. 0
H1 H1+ 4 e 0.7151(15) 0.3733(6) 0.7142(14) 0.05 1. 0
H2 H1+ 4 e 0.6152(17) 0.2613(11) 0.6430(17) 0.063 1. 0
H3 H1+ 4 e 0.3301(16) 0.4898(8) 0.6991(13) 0.04 1. 0
H4 H1+ 4 e 0.1862(15) 0.4555(9) 0.7973(15) 0.049 1. 0
loop_
_atom_site_aniso_label
_atom_site_aniso_type_symbol
_atom_site_aniso_U_11
_atom_site_aniso_U_22
_atom_site_aniso_U_33
_atom_site_aniso_U_12
_atom_site_aniso_U_13
_atom_site_aniso_U_23
Na1 Na1+ 0.0217(1) 0.0156(1) 0.0186(1) -.0015(1) 0.0025(1) -.0011(1)
O1 O2- 0.0225(2) 0.0179(2) 0.0261(2) -.0001(2) 0.0043(2) -.0004(2)
O2 O2- 0.0189(2) 0.0207(2) 0.0195(2) -.0015(1) 0.0006(1) 0.0030(2)
N1 N3- 0.0305(3) 0.0232(2) 0.0259(2) 0.0053(2) 0.0056(2) 0.0019(2)
C1 C2+ 0.0243(3) 0.0245(3) 0.0240(3) 0.0048(2) 0.0068(2) 0.0018(2)
#End of TTdata_830-ICSD