
#(C) 2019 by FIZ Karlsruhe - Leibniz Institute for Information Infrastructure.  All rights reserved.
data_97633-ICSD
_database_code_ICSD 97633
_audit_creation_date 2004-10-01
_chemical_name_systematic 'Deuterioammonia sodium carbon (6/2/60)'
_chemical_formula_structural '(N D3)6 Na2 C60'
_chemical_formula_sum 'C60 D18 N6 Na2'
_exptl_crystal_density_diffrn 1.64
_publ_section_title

;
Cation-site and anion charge ordering in body-centered cubic-packed fullerides
with complex counterions
;
loop_
_citation_id
_citation_journal_full
_citation_year
_citation_journal_volume
_citation_page_first
_citation_page_last
_citation_journal_id_ASTM
primary 'Chemistry of Materials' 2003 15 1497 1504 CMATEX
loop_
_publ_author_name
'Claridge, J.B.'
'Fowkes, A.J.'
'Rosseinsky, M.J.'
'Watts, I.D.'
_cell_length_a 12.151(3)
_cell_length_b 12.151(3)
_cell_length_c 12.151(3)
_cell_angle_alpha 90
_cell_angle_beta 90
_cell_angle_gamma 90
_cell_volume 1794.06
_cell_formula_units_Z 2
_symmetry_space_group_name_H-M 'I m -3'
_symmetry_Int_Tables_number 204
_refine_ls_R_factor_all 0.0096
loop_
_symmetry_equiv_pos_site_id
_symmetry_equiv_pos_as_xyz
1 '-z, x, y'
2 'z, x, -y'
3 'z, -x, y'
4 '-z, -x, -y'
5 'y, -z, x'
6 '-y, z, x'
7 'y, z, -x'
8 '-y, -z, -x'
9 'x, y, -z'
10 'x, -y, z'
11 '-x, y, z'
12 '-x, -y, -z'
13 'z, -x, -y'
14 '-z, -x, y'
15 '-z, x, -y'
16 'z, x, y'
17 '-y, z, -x'
18 'y, -z, -x'
19 '-y, -z, x'
20 'y, z, x'
21 '-x, -y, z'
22 '-x, y, -z'
23 'x, -y, -z'
24 'x, y, z'
25 '-z+1/2, x+1/2, y+1/2'
26 'z+1/2, x+1/2, -y+1/2'
27 'z+1/2, -x+1/2, y+1/2'
28 '-z+1/2, -x+1/2, -y+1/2'
29 'y+1/2, -z+1/2, x+1/2'
30 '-y+1/2, z+1/2, x+1/2'
31 'y+1/2, z+1/2, -x+1/2'
32 '-y+1/2, -z+1/2, -x+1/2'
33 'x+1/2, y+1/2, -z+1/2'
34 'x+1/2, -y+1/2, z+1/2'
35 '-x+1/2, y+1/2, z+1/2'
36 '-x+1/2, -y+1/2, -z+1/2'
37 'z+1/2, -x+1/2, -y+1/2'
38 '-z+1/2, -x+1/2, y+1/2'
39 '-z+1/2, x+1/2, -y+1/2'
40 'z+1/2, x+1/2, y+1/2'
41 '-y+1/2, z+1/2, -x+1/2'
42 'y+1/2, -z+1/2, -x+1/2'
43 '-y+1/2, -z+1/2, x+1/2'
44 'y+1/2, z+1/2, x+1/2'
45 '-x+1/2, -y+1/2, z+1/2'
46 '-x+1/2, y+1/2, -z+1/2'
47 'x+1/2, -y+1/2, -z+1/2'
48 'x+1/2, y+1/2, z+1/2'
loop_
_atom_type_symbol
_atom_type_oxidation_number
C0+ 0
Na0+ 0
N3- -3
D1+ 1
loop_
_atom_site_label
_atom_site_type_symbol
_atom_site_symmetry_multiplicity
_atom_site_Wyckoff_symbol
_atom_site_fract_x
_atom_site_fract_y
_atom_site_fract_z
_atom_site_B_iso_or_equiv
_atom_site_occupancy
_atom_site_attached_hydrogens
C1 C0+ 24 g 0.05667(40) 0 0.28850(32) 0.043(2) 1. 0
C2 C0+ 48 h 0.11788(21) 0.09844(27) 0.25287(24) 0.049(1) 1. 0
C3 C0+ 48 h 0.05696(19) 0.18544(23) 0.21382(22) 0.056(1) 1. 0
Na1 Na0+ 24 g 0.31978(33) 0.34151(29) 0 0.10(4) 0.167 0
N1 N3- 12 e 0.5 0.2837(7) 0 0.082(2) 1. 0
D1 D1+ 48 h 0.5589(13) 0.2241(14) 0.0341(7) 0.139(6) 0.25 0
D2 D1+ 48 h 0.4500(12) 0.3283(13) 0.0608(9) 0.139(6) 0.25 0
D3 D1+ 48 h 0.4560(15) 0.2567(14) -0.0743(12) 0.139(6) 0.25 0
#End of TTdata_97633-ICSD