
#(C) 2019 by FIZ Karlsruhe - Leibniz Institute for Information Infrastructure.  All rights reserved.
data_97922-ICSD
_database_code_ICSD 97922
_audit_creation_date 2004-10-01
_chemical_name_systematic 'Disodium carbonate decahydrate - LT'
_chemical_formula_structural 'Na2 (C O3) (H2 O)10'
_chemical_formula_sum 'C1 H20 Na2 O13'
_chemical_name_mineral Natron
_exptl_crystal_density_diffrn 1.5
_cell_measurement_temperature 110.
_publ_section_title

;
Washing soda (natron), Na2 C O3 * 10(H2 O) revised: crystal structures at low
and ambient temperatures
;
loop_
_citation_id
_citation_journal_full
_citation_year
_citation_journal_volume
_citation_page_first
_citation_page_last
_citation_journal_id_ASTM
primary 'Mineralogy and Petrology' 2003 77 177 195 MIPEE9
loop_
_publ_author_name
'Libowitzky, E.'
'Giester, G.'
_cell_length_a 12.740(1)
_cell_length_b 8.816(1)
_cell_length_c 12.571(1)
_cell_angle_alpha 90
_cell_angle_beta 115.97(1)
_cell_angle_gamma 90
_cell_volume 1269.35
_cell_formula_units_Z 4
_symmetry_space_group_name_H-M 'C 1 c 1'
_symmetry_Int_Tables_number 9
_refine_ls_R_factor_all 0.019
loop_
_symmetry_equiv_pos_site_id
_symmetry_equiv_pos_as_xyz
1 'x, -y, z+1/2'
2 'x, y, z'
3 'x+1/2, -y+1/2, z+1/2'
4 'x+1/2, y+1/2, z'
loop_
_atom_type_symbol
_atom_type_oxidation_number
Na1+ 1
C4+ 4
O2- -2
H1+ 1
loop_
_atom_site_label
_atom_site_type_symbol
_atom_site_symmetry_multiplicity
_atom_site_Wyckoff_symbol
_atom_site_fract_x
_atom_site_fract_y
_atom_site_fract_z
_atom_site_B_iso_or_equiv
_atom_site_occupancy
_atom_site_attached_hydrogens
Na1 Na1+ 4 a 0.13371(3) -.03546(4) 0.12779(3) 0.01322(8) 1. 0
Na2 Na1+ 4 a 0.86654(3) 0.03418(4) 0.87291(3) 0.01354(8) 1. 0
C1 C4+ 4 a -.00839(9) 0.50611(12) -.01460(8) 0.01146(15) 1. 0
O1 O2- 4 a 0.80782(7) 0.13536(9) 0.67698(6) 0.01519(14) 1. 0
O2 O2- 4 a 0.18774(6) 0.85814(9) 0.31986(6) 0.01503(14) 1. 0
O3 O2- 4 a -.06433(6) 0.87558(9) 0.04647(6) 0.01540(14) 1. 0
O4 O2- 4 a 0.06179(6) 0.12966(8) -.04666(6) 0.01580(14) 1. 0
O5 O2- 4 a 0.66164(6) -.04574(8) 0.80511(6) 0.01514(14) 1. 0
O6 O2- 4 a 0.33045(6) 0.05279(8) 0.17553(7) 0.01559(14) 1. 0
O7 O2- 4 a 0.08137(6) 0.18169(9) 0.20779(6) 0.01647(14) 1. 0
O8 O2- 4 a -.08963(7) 0.81429(8) 0.78687(7) 0.01708(14) 1. 0
O9 O2- 4 a 0.78472(7) 0.26685(9) -.08754(7) 0.01925(15) 1. 0
O10 O2- 4 a 0.20505(7) 0.73245(10) 0.08047(7) 0.02046(16) 1. 0
O11 O2- 4 a 0.89833(5) 0.54697(7) -.00619(5) 0.01487(12) 1. 0
O12 O2- 4 a 0.00493(6) 0.54031(7) 0.89318(6) 0.01938(14) 1. 0
O13 O2- 4 a 0.07225(6) 0.43262(8) 0.07036(6) 0.02036(14) 1. 0
H1 H1+ 4 a 0.8121(15) 0.227(2) 0.6757(15) 0.031(4) 1. 0
H2 H1+ 4 a 0.7377(14) 0.1194(17) 0.6379(12) 0.020(3) 1. 0
H3 H1+ 4 a 0.2635(17) 0.881(2) 0.3766(17) 0.049(5) 1. 0
H4 H1+ 4 a 0.1842(14) 0.768(2) 0.3108(14) 0.033(4) 1. 0
H5 H1+ 4 a -0.0764(16) 0.789(2) 0.0253(14) 0.031(4) 1. 0
H6 H1+ 4 a -0.0933(11) 0.8825(16) 0.0901(12) 0.017(3) 1. 0
H7 H1+ 4 a 0.1004(17) 0.132(2) -0.0923(18) 0.054(6) 1. 0
H8 H1+ 4 a 0.0627(14) 0.2248(19) -0.0281(14) 0.028(4) 1. 0
H9 H1+ 4 a 0.6188(15) -0.0191(18) 0.8415(15) 0.033(4) 1. 0
H10 H1+ 4 a 0.6278(16) -0.0136(19) 0.7445(17) 0.036(4) 1. 0
H11 H1+ 4 a 0.3586(14) 0.0416(16) 0.1282(14) 0.027(4) 1. 0
H12 H1+ 4 a 0.3815(16) 0.027(2) 0.2409(17) 0.040(5) 1. 0
H13 H1+ 4 a 0.0643(13) 0.2587(19) 0.1642(14) 0.028(4) 1. 0
H14 H1+ 4 a 0.0269(12) 0.1720(14) 0.2296(12) 0.024(3) 1. 0
H15 H1+ 4 a -0.0658(14) 0.7254(19) 0.8213(14) 0.031(4) 1. 0
H16 H1+ 4 a 0.8509(14) 0.7964(16) 0.7307(14) 0.029(4) 1. 0
H17 H1+ 4 a 0.8187(16) 0.360(2) -0.0658(16) 0.045(5) 1. 0
H18 H1+ 4 a 0.7227(15) 0.2831(16) 0.8509(14) 0.031(4) 1. 0
H19 H1+ 4 a 0.1683(16) 0.662(2) 0.0613(16) 0.046(5) 1. 0
H20 H1+ 4 a 0.2279(15) 0.7423(19) 0.0321(15) 0.036(4) 1. 0
loop_
_atom_site_aniso_label
_atom_site_aniso_type_symbol
_atom_site_aniso_U_11
_atom_site_aniso_U_22
_atom_site_aniso_U_33
_atom_site_aniso_U_12
_atom_site_aniso_U_13
_atom_site_aniso_U_23
Na1 Na1+ 0.01234(17) 0.01369(17) 0.01358(17) 0.00043(14) 0.00564(14) 0.00008(13)
Na2 Na1+ 0.01276(17) 0.01396(18) 0.01374(17) -.00031(14) 0.00564(14) -.00024(13)
C1 C4+ 0.0110(3) 0.0093(3) 0.0133(4) -.0022(3) 0.0046(3) -.0032(3)
O1 O2- 0.0141(3) 0.0144(4) 0.0181(3) -.0006(3) 0.0080(3) 0.0012(2)
O2 O2- 0.0155(3) 0.0134(3) 0.0159(3) 0.0002(3) 0.0067(3) -.0001(2)
O3 O2- 0.0166(3) 0.0154(3) 0.0164(3) -.0016(3) 0.0091(3) -.0010(3)
O4 O2- 0.0163(3) 0.0164(3) 0.0170(3) -.0018(3) 0.0094(3) -.0008(3)
O5 O2- 0.0148(3) 0.0159(3) 0.0162(3) 0.0023(3) 0.0082(3) 0.0012(3)
O6 O2- 0.0146(3) 0.0176(3) 0.0156(3) 0.0000(3) 0.0077(3) 0.0004(3)
O7 O2- 0.0178(3) 0.0159(3) 0.0179(3) 0.0029(3) 0.0098(3) 0.0008(3)
O8 O2- 0.0179(4) 0.0154(3) 0.0183(3) 0.0009(3) 0.0082(3) -.0001(3)
O9 O2- 0.0173(3) 0.0175(4) 0.0194(4) 0.0000(3) 0.0047(3) -.0041(3)
O10 O2- 0.0182(4) 0.0184(4) 0.0265(4) -.0063(3) 0.0114(3) -.0084(3)
O11 O2- 0.0132(3) 0.0172(3) 0.0155(3) 0.0021(2) 0.0074(2) -.0003(2)
O12 O2- 0.0187(3) 0.0242(3) 0.0194(3) 0.0053(2) 0.0122(3) 0.0068(2)
O13 O2- 0.0160(3) 0.0285(3) 0.0147(3) 0.0088(3) 0.0050(2) 0.0055(3)
#End of TTdata_97922-ICSD